*Heading
 D:\One_drive_folder\OneDrive - Indian Institute of Technology Indian School of Mines Dhanbad\IIT_ISM\RESEARCH\EDM-NODE\beam_node_optimized4\Examples\elliptic_hole_omega\Step_00_Create_Data\beam_ellipse_shared.inp
*NODE
1, 0.58, 0.05, 0
2, 0, 0, 0
3, 1, 0, 0
4, 0, 0.1, 0
5, 1, 0.1, 0
6, 0.57801393056226, 0.055535985245585, 0
7, 0.57374346101025, 0.059692045094217, 0
8, 0.56865906208734, 0.062831286506304, 0
9, 0.56322192097346, 0.06531884023212, 0
10, 0.55759715657159, 0.067350273420903, 0
11, 0.55185878881067, 0.069036011368389, 0
12, 0.54604573323957, 0.070443783558208, 0
13, 0.54018088347817, 0.071617901207756, 0
14, 0.53427889437688, 0.072588708376597, 0
15, 0.52834979957794, 0.073377608610898, 0
16, 0.52240088024021, 0.073999919768062, 0
17, 0.51643771123653, 0.074466578067129, 0
18, 0.51046478843721, 0.074785186877866, 0
19, 0.50448594109167, 0.07496066501714, 0
20, 0.4985046181434, 0.074995632104959, 0
21, 0.49252411629884, 0.07489060275989, 0
22, 0.48654778207196, 0.074644023887365, 0
23, 0.48057922356885, 0.074252161313985, 0
24, 0.47462256157777, 0.073708816305707, 0
25, 0.46868276967403, 0.073004820921194, 0
26, 0.46276617652343, 0.072127212083351, 0
27, 0.45688127181658, 0.071057898421313, 0
28, 0.45104008816064, 0.069771465374002, 0
29, 0.44526077374296, 0.06823141473609, 0
30, 0.43957282063808, 0.066383335170972, 0
31, 0.43402902552169, 0.064141550475179, 0
32, 0.42873734127724, 0.061360711629425, 0
33, 0.42396510266577, 0.057772990014585, 0
34, 0.42054883798235, 0.052923384537296, 0
35, 0.42054883798235, 0.047076615462704, 0
36, 0.42396510266577, 0.042227009985415, 0
37, 0.42873734127724, 0.038639288370575, 0
38, 0.43402902552169, 0.035858449524821, 0
39, 0.43957282063808, 0.033616664829028, 0
40, 0.44526077374296, 0.03176858526391, 0
41, 0.45104008816064, 0.030228534625998, 0
42, 0.45688127181658, 0.028942101578687, 0
43, 0.46276617652343, 0.027872787916649, 0
44, 0.46868276967403, 0.026995179078806, 0
45, 0.47462256157777, 0.026291183694293, 0
46, 0.48057922356885, 0.025747838686015, 0
47, 0.48654778207196, 0.025355976112635, 0
48, 0.49252411629884, 0.02510939724011, 0
49, 0.4985046181434, 0.025004367895041, 0
50, 0.50448594109167, 0.02503933498286, 0
51, 0.51046478843721, 0.025214813122134, 0
52, 0.51643771123653, 0.025533421932872, 0
53, 0.52240088024021, 0.026000080231938, 0
54, 0.52834979957794, 0.026622391389102, 0
55, 0.53427889437688, 0.027411291623403, 0
56, 0.54018088347817, 0.028382098792244, 0
57, 0.54604573323957, 0.029556216441792, 0
58, 0.55185878881067, 0.030963988631611, 0
59, 0.55759715657159, 0.032649726579098, 0
60, 0.56322192097346, 0.03468115976788, 0
61, 0.56865906208735, 0.037168713493697, 0
62, 0.57374346101025, 0.040307954905783, 0
63, 0.57801393056226, 0.044464014754415, 0
64, 0.0059880239520958, 0, 0
65, 0.011976047904192, 0, 0
66, 0.017964071856287, 0, 0
67, 0.023952095808383, 0, 0
68, 0.029940119760479, 0, 0
69, 0.035928143712575, 0, 0
70, 0.041916167664671, 0, 0
71, 0.047904191616767, 0, 0
72, 0.053892215568862, 0, 0
73, 0.059880239520958, 0, 0
74, 0.065868263473054, 0, 0
75, 0.07185628742515, 0, 0
76, 0.077844311377246, 0, 0
77, 0.083832335329341, 0, 0
78, 0.089820359281437, 0, 0
79, 0.095808383233533, 0, 0
80, 0.10179640718563, 0, 0
81, 0.10778443113772, 0, 0
82, 0.11377245508982, 0, 0
83, 0.11976047904192, 0, 0
84, 0.12574850299401, 0, 0
85, 0.13173652694611, 0, 0
86, 0.1377245508982, 0, 0
87, 0.1437125748503, 0, 0
88, 0.1497005988024, 0, 0
89, 0.15568862275449, 0, 0
90, 0.16167664670659, 0, 0
91, 0.16766467065868, 0, 0
92, 0.17365269461078, 0, 0
93, 0.17964071856287, 0, 0
94, 0.18562874251497, 0, 0
95, 0.19161676646707, 0, 0
96, 0.19760479041916, 0, 0
97, 0.20359281437126, 0, 0
98, 0.20958083832335, 0, 0
99, 0.21556886227545, 0, 0
100, 0.22155688622755, 0, 0
101, 0.22754491017964, 0, 0
102, 0.23353293413174, 0, 0
103, 0.23952095808383, 0, 0
104, 0.24550898203593, 0, 0
105, 0.25149700598802, 0, 0
106, 0.25748502994012, 0, 0
107, 0.26347305389222, 0, 0
108, 0.26946107784431, 0, 0
109, 0.27544910179641, 0, 0
110, 0.2814371257485, 0, 0
111, 0.2874251497006, 0, 0
112, 0.29341317365269, 0, 0
113, 0.29940119760479, 0, 0
114, 0.30538922155689, 0, 0
115, 0.31137724550898, 0, 0
116, 0.31736526946108, 0, 0
117, 0.32335329341317, 0, 0
118, 0.32934131736527, 0, 0
119, 0.33532934131737, 0, 0
120, 0.34131736526946, 0, 0
121, 0.34730538922156, 0, 0
122, 0.35329341317365, 0, 0
123, 0.35928143712575, 0, 0
124, 0.36526946107784, 0, 0
125, 0.37125748502994, 0, 0
126, 0.37724550898204, 0, 0
127, 0.38323353293413, 0, 0
128, 0.38922155688623, 0, 0
129, 0.39520958083832, 0, 0
130, 0.40119760479042, 0, 0
131, 0.40718562874251, 0, 0
132, 0.41317365269461, 0, 0
133, 0.41916167664671, 0, 0
134, 0.4251497005988, 0, 0
135, 0.4311377245509, 0, 0
136, 0.43712574850299, 0, 0
137, 0.44311377245509, 0, 0
138, 0.44910179640719, 0, 0
139, 0.45508982035928, 0, 0
140, 0.46107784431138, 0, 0
141, 0.46706586826347, 0, 0
142, 0.47305389221557, 0, 0
143, 0.47904191616767, 0, 0
144, 0.48502994011976, 0, 0
145, 0.49101796407186, 0, 0
146, 0.49700598802395, 0, 0
147, 0.50299401197605, 0, 0
148, 0.50898203592814, 0, 0
149, 0.51497005988024, 0, 0
150, 0.52095808383234, 0, 0
151, 0.52694610778443, 0, 0
152, 0.53293413173653, 0, 0
153, 0.53892215568862, 0, 0
154, 0.54491017964072, 0, 0
155, 0.55089820359282, 0, 0
156, 0.55688622754491, 0, 0
157, 0.56287425149701, 0, 0
158, 0.5688622754491, 0, 0
159, 0.5748502994012, 0, 0
160, 0.58083832335329, 0, 0
161, 0.58682634730539, 0, 0
162, 0.59281437125749, 0, 0
163, 0.59880239520958, 0, 0
164, 0.60479041916168, 0, 0
165, 0.61077844311377, 0, 0
166, 0.61676646706587, 0, 0
167, 0.62275449101796, 0, 0
168, 0.62874251497006, 0, 0
169, 0.63473053892216, 0, 0
170, 0.64071856287425, 0, 0
171, 0.64670658682635, 0, 0
172, 0.65269461077844, 0, 0
173, 0.65868263473054, 0, 0
174, 0.66467065868264, 0, 0
175, 0.67065868263473, 0, 0
176, 0.67664670658683, 0, 0
177, 0.68263473053892, 0, 0
178, 0.68862275449102, 0, 0
179, 0.69461077844312, 0, 0
180, 0.70059880239521, 0, 0
181, 0.70658682634731, 0, 0
182, 0.7125748502994, 0, 0
183, 0.7185628742515, 0, 0
184, 0.72455089820359, 0, 0
185, 0.73053892215569, 0, 0
186, 0.73652694610779, 0, 0
187, 0.74251497005988, 0, 0
188, 0.74850299401198, 0, 0
189, 0.75449101796407, 0, 0
190, 0.76047904191617, 0, 0
191, 0.76646706586826, 0, 0
192, 0.77245508982036, 0, 0
193, 0.77844311377246, 0, 0
194, 0.78443113772455, 0, 0
195, 0.79041916167665, 0, 0
196, 0.79640718562874, 0, 0
197, 0.80239520958084, 0, 0
198, 0.80838323353294, 0, 0
199, 0.81437125748503, 0, 0
200, 0.82035928143713, 0, 0
201, 0.82634730538922, 0, 0
202, 0.83233532934132, 0, 0
203, 0.83832335329341, 0, 0
204, 0.84431137724551, 0, 0
205, 0.85029940119761, 0, 0
206, 0.8562874251497, 0, 0
207, 0.8622754491018, 0, 0
208, 0.86826347305389, 0, 0
209, 0.87425149700599, 0, 0
210, 0.88023952095808, 0, 0
211, 0.88622754491018, 0, 0
212, 0.89221556886228, 0, 0
213, 0.89820359281437, 0, 0
214, 0.90419161676647, 0, 0
215, 0.91017964071856, 0, 0
216, 0.91616766467066, 0, 0
217, 0.92215568862276, 0, 0
218, 0.92814371257485, 0, 0
219, 0.93413173652695, 0, 0
220, 0.94011976047904, 0, 0
221, 0.94610778443114, 0, 0
222, 0.95209580838323, 0, 0
223, 0.95808383233533, 0, 0
224, 0.96407185628743, 0, 0
225, 0.97005988023952, 0, 0
226, 0.97604790419162, 0, 0
227, 0.98203592814371, 0, 0
228, 0.98802395209581, 0, 0
229, 0.9940119760479, 0, 0
230, 0, 0.094117647058824, 0
231, 0, 0.088235294117647, 0
232, 0, 0.082352941176471, 0
233, 0, 0.076470588235294, 0
234, 0, 0.070588235294118, 0
235, 0, 0.064705882352941, 0
236, 0, 0.058823529411765, 0
237, 0, 0.052941176470588, 0
238, 0, 0.047058823529412, 0
239, 0, 0.041176470588235, 0
240, 0, 0.035294117647059, 0
241, 0, 0.029411764705882, 0
242, 0, 0.023529411764706, 0
243, 0, 0.017647058823529, 0
244, 0, 0.011764705882353, 0
245, 0, 0.0058823529411765, 0
246, 1, 0.0058823529411765, 0
247, 1, 0.011764705882353, 0
248, 1, 0.017647058823529, 0
249, 1, 0.023529411764706, 0
250, 1, 0.029411764705882, 0
251, 1, 0.035294117647059, 0
252, 1, 0.041176470588235, 0
253, 1, 0.047058823529412, 0
254, 1, 0.052941176470588, 0
255, 1, 0.058823529411765, 0
256, 1, 0.064705882352941, 0
257, 1, 0.070588235294118, 0
258, 1, 0.076470588235294, 0
259, 1, 0.082352941176471, 0
260, 1, 0.088235294117647, 0
261, 1, 0.094117647058824, 0
262, 0.9940119760479, 0.1, 0
263, 0.98802395209581, 0.1, 0
264, 0.98203592814371, 0.1, 0
265, 0.97604790419162, 0.1, 0
266, 0.97005988023952, 0.1, 0
267, 0.96407185628743, 0.1, 0
268, 0.95808383233533, 0.1, 0
269, 0.95209580838323, 0.1, 0
270, 0.94610778443114, 0.1, 0
271, 0.94011976047904, 0.1, 0
272, 0.93413173652695, 0.1, 0
273, 0.92814371257485, 0.1, 0
274, 0.92215568862275, 0.1, 0
275, 0.91616766467066, 0.1, 0
276, 0.91017964071856, 0.1, 0
277, 0.90419161676647, 0.1, 0
278, 0.89820359281437, 0.1, 0
279, 0.89221556886228, 0.1, 0
280, 0.88622754491018, 0.1, 0
281, 0.88023952095808, 0.1, 0
282, 0.87425149700599, 0.1, 0
283, 0.86826347305389, 0.1, 0
284, 0.8622754491018, 0.1, 0
285, 0.8562874251497, 0.1, 0
286, 0.8502994011976, 0.1, 0
287, 0.84431137724551, 0.1, 0
288, 0.83832335329341, 0.1, 0
289, 0.83233532934132, 0.1, 0
290, 0.82634730538922, 0.1, 0
291, 0.82035928143713, 0.1, 0
292, 0.81437125748503, 0.1, 0
293, 0.80838323353293, 0.1, 0
294, 0.80239520958084, 0.1, 0
295, 0.79640718562874, 0.1, 0
296, 0.79041916167665, 0.1, 0
297, 0.78443113772455, 0.1, 0
298, 0.77844311377246, 0.1, 0
299, 0.77245508982036, 0.1, 0
300, 0.76646706586826, 0.1, 0
301, 0.76047904191617, 0.1, 0
302, 0.75449101796407, 0.1, 0
303, 0.74850299401198, 0.1, 0
304, 0.74251497005988, 0.1, 0
305, 0.73652694610778, 0.1, 0
306, 0.73053892215569, 0.1, 0
307, 0.72455089820359, 0.1, 0
308, 0.7185628742515, 0.1, 0
309, 0.7125748502994, 0.1, 0
310, 0.70658682634731, 0.1, 0
311, 0.70059880239521, 0.1, 0
312, 0.69461077844311, 0.1, 0
313, 0.68862275449102, 0.1, 0
314, 0.68263473053892, 0.1, 0
315, 0.67664670658683, 0.1, 0
316, 0.67065868263473, 0.1, 0
317, 0.66467065868263, 0.1, 0
318, 0.65868263473054, 0.1, 0
319, 0.65269461077844, 0.1, 0
320, 0.64670658682635, 0.1, 0
321, 0.64071856287425, 0.1, 0
322, 0.63473053892216, 0.1, 0
323, 0.62874251497006, 0.1, 0
324, 0.62275449101796, 0.1, 0
325, 0.61676646706587, 0.1, 0
326, 0.61077844311377, 0.1, 0
327, 0.60479041916168, 0.1, 0
328, 0.59880239520958, 0.1, 0
329, 0.59281437125749, 0.1, 0
330, 0.58682634730539, 0.1, 0
331, 0.58083832335329, 0.1, 0
332, 0.5748502994012, 0.1, 0
333, 0.5688622754491, 0.1, 0
334, 0.56287425149701, 0.1, 0
335, 0.55688622754491, 0.1, 0
336, 0.55089820359281, 0.1, 0
337, 0.54491017964072, 0.1, 0
338, 0.53892215568862, 0.1, 0
339, 0.53293413173653, 0.1, 0
340, 0.52694610778443, 0.1, 0
341, 0.52095808383233, 0.1, 0
342, 0.51497005988024, 0.1, 0
343, 0.50898203592814, 0.1, 0
344, 0.50299401197605, 0.1, 0
345, 0.49700598802395, 0.1, 0
346, 0.49101796407186, 0.1, 0
347, 0.48502994011976, 0.1, 0
348, 0.47904191616766, 0.1, 0
349, 0.47305389221557, 0.1, 0
350, 0.46706586826347, 0.1, 0
351, 0.46107784431138, 0.1, 0
352, 0.45508982035928, 0.1, 0
353, 0.44910179640718, 0.1, 0
354, 0.44311377245509, 0.1, 0
355, 0.43712574850299, 0.1, 0
356, 0.4311377245509, 0.1, 0
357, 0.4251497005988, 0.1, 0
358, 0.41916167664671, 0.1, 0
359, 0.41317365269461, 0.1, 0
360, 0.40718562874251, 0.1, 0
361, 0.40119760479042, 0.1, 0
362, 0.39520958083832, 0.1, 0
363, 0.38922155688623, 0.1, 0
364, 0.38323353293413, 0.1, 0
365, 0.37724550898204, 0.1, 0
366, 0.37125748502994, 0.1, 0
367, 0.36526946107784, 0.1, 0
368, 0.35928143712575, 0.1, 0
369, 0.35329341317365, 0.1, 0
370, 0.34730538922156, 0.1, 0
371, 0.34131736526946, 0.1, 0
372, 0.33532934131736, 0.1, 0
373, 0.32934131736527, 0.1, 0
374, 0.32335329341317, 0.1, 0
375, 0.31736526946108, 0.1, 0
376, 0.31137724550898, 0.1, 0
377, 0.30538922155688, 0.1, 0
378, 0.29940119760479, 0.1, 0
379, 0.29341317365269, 0.1, 0
380, 0.2874251497006, 0.1, 0
381, 0.2814371257485, 0.1, 0
382, 0.27544910179641, 0.1, 0
383, 0.26946107784431, 0.1, 0
384, 0.26347305389221, 0.1, 0
385, 0.25748502994012, 0.1, 0
386, 0.25149700598802, 0.1, 0
387, 0.24550898203593, 0.1, 0
388, 0.23952095808383, 0.1, 0
389, 0.23353293413174, 0.1, 0
390, 0.22754491017964, 0.1, 0
391, 0.22155688622754, 0.1, 0
392, 0.21556886227545, 0.1, 0
393, 0.20958083832335, 0.1, 0
394, 0.20359281437126, 0.1, 0
395, 0.19760479041916, 0.1, 0
396, 0.19161676646706, 0.1, 0
397, 0.18562874251497, 0.1, 0
398, 0.17964071856287, 0.1, 0
399, 0.17365269461078, 0.1, 0
400, 0.16766467065868, 0.1, 0
401, 0.16167664670659, 0.1, 0
402, 0.15568862275449, 0.1, 0
403, 0.14970059880239, 0.1, 0
404, 0.1437125748503, 0.1, 0
405, 0.1377245508982, 0.1, 0
406, 0.13173652694611, 0.1, 0
407, 0.12574850299401, 0.1, 0
408, 0.11976047904192, 0.1, 0
409, 0.11377245508982, 0.1, 0
410, 0.10778443113772, 0.1, 0
411, 0.10179640718563, 0.1, 0
412, 0.095808383233532, 0.1, 0
413, 0.089820359281437, 0.1, 0
414, 0.083832335329341, 0.1, 0
415, 0.077844311377245, 0.1, 0
416, 0.071856287425149, 0.1, 0
417, 0.065868263473053, 0.1, 0
418, 0.059880239520958, 0.1, 0
419, 0.053892215568862, 0.1, 0
420, 0.047904191616766, 0.1, 0
421, 0.04191616766467, 0.1, 0
422, 0.035928143712575, 0.1, 0
423, 0.029940119760479, 0.1, 0
424, 0.023952095808383, 0.1, 0
425, 0.017964071856287, 0.1, 0
426, 0.011976047904191, 0.1, 0
427, 0.0059880239520959, 0.1, 0
428, 0.41547512606076, 0.050003018475329, 0
429, 0.99499520822785, 0.049977183171532, 0
430, 0.004399933870821, 0.050078211930188, 0
431, 0.92515047171284, 0.0051861525275855, 0
432, 0.85329341317365, 0.0050677449943866, 0
433, 0.87724550898204, 0.0050889538396762, 0
434, 0.79940205623491, 0.0046568567481123, 0
435, 0.075321240574688, 0.094897298280225, 0
436, 0.11695629707383, 0.094988856044462, 0
437, 0.14740193008747, 0.094855574156469, 0
438, 0.18921997104942, 0.094883507740817, 0
439, 0.2125748502994, 0.095027806739122, 0
440, 0.90119764705735, 0.0051857622714657, 0
441, 0.70955156565224, 0.094989483357353, 0
442, 0.829350725834, 0.094847103969756, 0
443, 0.26646699875432, 0.005185777341036, 0
444, 0.34480406302205, 0.0052025596974831, 0
445, 0.64375583317023, 0.09477983166044, 0
446, 0.67361396849224, 0.094887641590824, 0
447, 0.29041936506515, 0.005185844578725, 0
448, 0.73353293413174, 0.094848606201322, 0
449, 0.76946108093369, 0.0051857819300158, 0
450, 0.23590647295184, 0.094304480591936, 0
451, 0.32035884273814, 0.0049905498418515, 0
452, 0.16467065868263, 0.0051857808609847, 0
453, 0.94315492821547, 0.095005012578127, 0
454, 0.092886025829153, 0.0050800112212381, 0
455, 0.056886642561724, 0.0050064393074732, 0
456, 0.36222499639005, 0.094996044342036, 0
457, 0.69161682051806, 0.005185801325315, 0
458, 0.78733184161228, 0.094868090588924, 0
459, 0.75748503324628, 0.094814219019542, 0
460, 0.86530233327008, 0.094939608781907, 0
461, 0.6556888676359, 0.0051858931513014, 0
462, 0.12874251497006, 0.0051857808609847, 0
463, 0.88922155688623, 0.094987267427221, 0
464, 0.20066253031617, 0.0051435001677485, 0
465, 0.74550896078624, 0.0051857961426782, 0
466, 0.22455089820359, 0.0050278890825739, 0
467, 0.91317365269461, 0.094814219139015, 0
468, 0.63173506347092, 0.0051867950265251, 0
469, 0.30838318614472, 0.095011987708914, 0
470, 0.33233677555726, 0.09481317000444, 0
471, 0.72155688622755, 0.0051541900931032, 0
472, 0.27844308987769, 0.095026983674682, 0
473, 0.82288451286651, 0.0054480018733271, 0
474, 0.36826252579616, 0.0049736619083364, 0
475, 0.050897786918653, 0.095033952594932, 0
476, 0.94948030146978, 0.0049002535782571, 0
477, 0.61976394512542, 0.094817067778518, 0
478, 0.38622172569138, 0.09481530517629, 0
479, 0.38623604172146, 0.0052725595179417, 0
480, 0.09943403558542, 0.094760681361492, 0
481, 0.171530839396, 0.094761399948222, 0
482, 0.96111369340379, 0.094520498821086, 0
483, 0.80519176277297, 0.094393198884199, 0
484, 0.69158015658505, 0.094981230611982, 0
485, 0.25440270791569, 0.094865202264594, 0
486, 0.84737433388586, 0.095140213592901, 0
487, 0.24842672827636, 0.0050147097566793, 0
488, 0.61376988570422, 0.005184107744382, 0
489, 0.038920701138454, 0.0050153917458657, 0
490, 0.11049198920109, 0.0053909358433059, 0
491, 0.67365283624881, 0.0051858405472193, 0
492, 0.14670658942506, 0.0051857804177892, 0
493, 0.18275101672742, 0.005028828418723, 0
494, 0.074993197732217, 0.0051509022539913, 0
495, 0.032938588035143, 0.094811166260676, 0
496, 0.9677940873969, 0.005144219471803, 0
497, 0.99484110152044, 0.06822066179532, 0
498, 0.0047897589354445, 0.032275248808631, 0
499, 0.60202648265655, 0.095120396455976, 0
500, 0.99489186849436, 0.032374732238028, 0
501, 0.0046264281389471, 0.067791767280721, 0
502, 0.59576498010593, 0.0051578900589213, 0
503, 0.40418692383367, 0.094811615275611, 0
504, 0.40418327986516, 0.0052745438411672, 0
505, 0.57925248450541, 0.061145384849086, 0
506, 0.57923262273568, 0.038671130708179, 0
507, 0.42406926398456, 0.062996165197612, 0
508, 0.42405685861984, 0.03700803032346, 0
509, 0.9790723474055, 0.094612346955379, 0
510, 0.020844164725036, 0.005220092863441, 0
511, 0.58383233532934, 0.094814219139015, 0
512, 0.57784431137725, 0.0051857808609847, 0
513, 0.42821225305884, 0.094795511424338, 0
514, 0.42818201585778, 0.0052287641429814, 0
515, 0.56820207440055, 0.06862868651004, 0
516, 0.5632818034189, 0.029315306657526, 0
517, 0.56048012569986, 0.093703030929445, 0
518, 0.44681674547081, 0.074006332452205, 0
519, 0.44681674547081, 0.025993667547795, 0
520, 0.97904191616766, 0.0051857808609845, 0
521, 0.020945669769659, 0.094811376970977, 0
522, 0.062445594948929, 0.094896996169898, 0
523, 0.93712681885159, 0.0051850261171698, 0
524, 0.41588719948349, 0.09477477333196, 0
525, 0.41569246465257, 0.0049800937807803, 0
526, 0.57185628742515, 0.094814219139015, 0
527, 0.9251497005988, 0.094814219139015, 0
528, 0.86526946107785, 0.0051098528393541, 0
529, 0.086824366881334, 0.095035388701885, 0
530, 0.78731229538117, 0.0051206240454445, 0
531, 0.15886894102282, 0.094902258228341, 0
532, 0.35029897840739, 0.094814262045614, 0
533, 0.73353292670334, 0.0051857805490108, 0
534, 0.20066252209996, 0.094921638875651, 0
535, 0.8118663880322, 0.0050771321828969, 0
536, 0.13468656958974, 0.095011982060274, 0
537, 0.87724550898204, 0.094954544850231, 0
538, 0.23652694610778, 0.0051857808609846, 0
539, 0.74550898416206, 0.094916047488712, 0
540, 0.75748503341054, 0.0048566700719937, 0
541, 0.84093501723885, 0.0053445962496334, 0
542, 0.37475179158436, 0.095023120358918, 0
543, 0.72175423982067, 0.094928161289133, 0
544, 0.65569415344671, 0.094818005586765, 0
545, 0.22439989652732, 0.094901394289744, 0
546, 0.81738911128476, 0.094739833764263, 0
547, 0.63188189120292, 0.094546221991727, 0
548, 0.7035928446284, 0.0051857796853468, 0
549, 0.2964071562906, 0.095003493424588, 0
550, 0.77544910179641, 0.095088768662362, 0
551, 0.356273688929, 0.0051428095274712, 0
552, 0.88922157378251, 0.005153966037757, 0
553, 0.30239506932409, 0.0051857999492872, 0
554, 0.27844311377246, 0.0051857808609847, 0
555, 0.33191724656633, 0.0051874562846202, 0
556, 0.91317377860752, 0.0051858239075524, 0
557, 0.32035903643564, 0.095022584783022, 0
558, 0.21257485679276, 0.00499272030274, 0
559, 0.26658656700171, 0.094883213150582, 0
560, 0.64372252584165, 0.0052641885644729, 0
561, 0.90119760479042, 0.094814219139015, 0
562, 0.005094267081085, 0.020588235294118, 0
563, 0.9950485265514, 0.07923456078683, 0
564, 0.005577391709814, 0.079740685398597, 0
565, 0.99481597131458, 0.021316179727893, 0
566, 0.55389221556886, 0.0051857808609847, 0
567, 0.43493652676243, 0.069461703263746, 0
568, 0.43494465916104, 0.030557050496042, 0
569, 0.54794023711603, 0.095050454699914, 0
570, 0.56566043981454, 0.0052729527093172, 0
571, 0.45879040969962, 0.07667605187981, 0
572, 0.45879040659422, 0.023323951337652, 0
573, 0.54191616766467, 0.0051857808609847, 0
574, 0.44082769696851, 0.094537062126497, 0
575, 0.44077763186253, 0.0055114655135685, 0
576, 0.5357729994762, 0.094811119041334, 0
577, 0.5562668363593, 0.073165733439944, 0
578, 0.47070963695979, 0.02131965791061, 0
579, 0.47073416199253, 0.078669347806175, 0
580, 0.52994011976048, 0.0051857808609847, 0
581, 0.52404117027616, 0.094769121780672, 0
582, 0.48205957136901, 0.09529012222986, 0
583, 0.48205982907497, 0.0047062253694242, 0
584, 0.5179241726627, 0.0051932226020466, 0
585, 0.550383314401, 0.025242567022665, 0
586, 0.5118008871073, 0.095108305270186, 0
587, 0.45188333670228, 0.09471697883978, 0
588, 0.4517718252904, 0.0053452323431469, 0
589, 0.49403477145084, 0.005093718285251, 0
590, 0.49410342261524, 0.095240964956512, 0
591, 0.50598802432266, 0.0051254172155604, 0
592, 0.54424799672718, 0.076094005542394, 0
593, 0.46455550271688, 0.094530469739716, 0
594, 0.46380402424657, 0.006008555787683, 0
595, 0.53816926309025, 0.022796060894182, 0
596, 0.50156051440999, 0.080339252029503, 0
597, 0.53218107840031, 0.078157432197133, 0
598, 0.4152659631851, 0.044139109352254, 0
599, 0.41035675337854, 0.047073406712654, 0
600, 0.41035658249307, 0.041194830790934, 0
601, 0.40530419346272, 0.044137891506847, 0
602, 0.40530359296768, 0.050019093547218, 0
603, 0.40020141648117, 0.047079197721879, 0
604, 0.40020375192114, 0.052975370830498, 0
605, 0.39508969123958, 0.050028785337116, 0
606, 0.39508624860408, 0.044129281610839, 0
607, 0.38996683278498, 0.047075618255248, 0
608, 0.38996677213624, 0.052983470585116, 0
609, 0.38483791857772, 0.050031543396215, 0
610, 0.38484171812407, 0.044103819083469, 0
611, 0.37969826120046, 0.047072560927292, 0
612, 0.37969648703134, 0.05299360459978, 0
613, 0.37455355779093, 0.050043749180173, 0
614, 0.37455228001871, 0.04410231085438, 0
615, 0.36940328842659, 0.047076215776842, 0
616, 0.3694066745122, 0.053025014194879, 0
617, 0.36425077250312, 0.050053956961022, 0
618, 0.36425505400355, 0.056007337403813, 0
619, 0.35909542020758, 0.053033665071932, 0
620, 0.35909480070723, 0.047075215383742, 0
621, 0.35393306067083, 0.050058308121947, 0
622, 0.35393601226008, 0.056019177472216, 0
623, 0.34876935478434, 0.053041367836348, 0
624, 0.34876739895729, 0.047074622351323, 0
625, 0.34360040664384, 0.050060386823683, 0
626, 0.34359892050923, 0.04409274662632, 0
627, 0.33843005250429, 0.047078514507416, 0
628, 0.3384323685847, 0.053046076356898, 0
629, 0.33326013308722, 0.050063565845988, 0
630, 0.33325773532094, 0.044093179610996, 0
631, 0.32808557652193, 0.047080700781256, 0
632, 0.32808683928043, 0.053050358866631, 0
633, 0.32291166430556, 0.050069105566919, 0
634, 0.32291004499609, 0.044093370670424, 0
635, 0.31773481177316, 0.047082737787967, 0
636, 0.31773695254463, 0.053059878827691, 0
637, 0.31255853830202, 0.050072963783936, 0
638, 0.312561127811, 0.056052021320524, 0
639, 0.30738138489867, 0.05306411007106, 0
640, 0.30737999282371, 0.047085323399697, 0
641, 0.30220117083343, 0.05007590340955, 0
642, 0.30219984909218, 0.0440981241631, 0
643, 0.2970207234427, 0.047088634254649, 0
644, 0.29702219469398, 0.053068440682892, 0
645, 0.29184053680614, 0.050079145525453, 0
646, 0.29183851290751, 0.044101521002403, 0
647, 0.28665829498887, 0.047092223618089, 0
648, 0.28666041118686, 0.053070702144432, 0
649, 0.28147730955589, 0.050082318892839, 0
650, 0.28147445835976, 0.044103734194162, 0
651, 0.27629324098787, 0.047093949587879, 0
652, 0.27629514374799, 0.053073847568692, 0
653, 0.27111155725444, 0.050085377611157, 0
654, 0.2711109762552, 0.04410174573966, 0
655, 0.26592739022261, 0.047096246732392, 0
656, 0.26592869652439, 0.05307813588921, 0
657, 0.26074452056729, 0.050089986609437, 0
658, 0.26074389278719, 0.044104732641922, 0
659, 0.25555993792348, 0.04709968540099, 0
660, 0.25556287286689, 0.053085581696916, 0
661, 0.25037694621002, 0.050094301206417, 0
662, 0.25037562194943, 0.044108174906814, 0
663, 0.24519166763191, 0.047103256701692, 0
664, 0.24519442583886, 0.053089677181139, 0
665, 0.24000825342605, 0.050098139634571, 0
666, 0.24000681482708, 0.044111569384177, 0
667, 0.23482260786355, 0.047106766530473, 0
668, 0.23482502432339, 0.05309349414802, 0
669, 0.22963889115335, 0.050101835585939, 0
670, 0.22963735480274, 0.044115049700308, 0
671, 0.22445305355199, 0.047110281515921, 0
672, 0.22445536048991, 0.053097315179123, 0
673, 0.21926907377431, 0.050105538219235, 0
674, 0.21926728173495, 0.044118457949807, 0
675, 0.21408295395204, 0.047113832353601, 0
676, 0.21408522710383, 0.053101076665139, 0
677, 0.20889876790729, 0.050109245418868, 0
678, 0.20889683037652, 0.044121935457831, 0
679, 0.20371246047669, 0.047117400737498, 0
680, 0.20371473078165, 0.053104834593648, 0
681, 0.19852821130183, 0.050112976837348, 0
682, 0.19852607005585, 0.0441254629695, 0
683, 0.1933417608188, 0.047121059049449, 0
684, 0.19334389656633, 0.053108626352019, 0
685, 0.18815740944843, 0.050116694068316, 0
686, 0.18815956091345, 0.056104307830558, 0
687, 0.1829730398073, 0.053112330616982, 0
688, 0.18297091675685, 0.047124733131988, 0
689, 0.17778647689001, 0.050120361378085, 0
690, 0.17778435478843, 0.044132798066842, 0
691, 0.17259989259822, 0.047128439018893, 0
692, 0.17260200445075, 0.053116029318619, 0
693, 0.16741538129819, 0.050124065972147, 0
694, 0.16741322019458, 0.044136444884639, 0
695, 0.16222869258055, 0.047132086771068, 0
696, 0.16223082614311, 0.053119782536576, 0
697, 0.15704414337101, 0.050127849911118, 0
698, 0.15704201793916, 0.04413998990645, 0
699, 0.15185742237787, 0.047135787010089, 0
700, 0.15185959652996, 0.05312367664241, 0
701, 0.14667284047319, 0.050131608909503, 0
702, 0.14667068152306, 0.044143699757225, 0
703, 0.14148607979045, 0.047139510940706, 0
704, 0.14148823946742, 0.053127439274983, 0
705, 0.1363014617663, 0.050135339531339, 0
706, 0.13630362273687, 0.05612326530917, 0
707, 0.1311168346259, 0.053131175110794, 0
708, 0.13111468488394, 0.047143244349634, 0
709, 0.12593004284715, 0.050139071349433, 0
710, 0.12592788687133, 0.044151116586796, 0
711, 0.12074323771048, 0.047146961088858, 0
712, 0.12074539523164, 0.053134927185055, 0
713, 0.11555857205549, 0.05014281185389, 0
714, 0.11556074381122, 0.056130784437994, 0
715, 0.11037389834667, 0.053138630963999, 0
716, 0.11037175722366, 0.047150703471837, 0
717, 0.10518713610392, 0.05014648303255, 0
718, 0.10518485126301, 0.04415835322839, 0
719, 0.10000032257516, 0.047154107536336, 0
720, 0.10000214792618, 0.05314188302367, 0
721, 0.094815665107942, 0.050149374519966, 0
722, 0.094812518008221, 0.044162973949467, 0
723, 0.089630021637109, 0.047159285098955, 0
724, 0.089632226829366, 0.053143670819972, 0
725, 0.084449566931163, 0.050152513190797, 0
726, 0.084444459664465, 0.044178919095458, 0
727, 0.079267009603313, 0.047169324694569, 0
728, 0.07927103621487, 0.053143976754137, 0
729, 0.074095091703452, 0.050154993161818, 0
730, 0.074088242062266, 0.044188258699078, 0
731, 0.068921111591478, 0.047171501220795, 0
732, 0.068915142333885, 0.053164896804404, 0
733, 0.063751181885329, 0.050165072092703, 0
734, 0.063752106606667, 0.044192915433484, 0
735, 0.058589005510421, 0.047178065858756, 0
736, 0.058579157666259, 0.053152219027938, 0
737, 0.053427983949444, 0.050162867832628, 0
738, 0.053430270505851, 0.056116153958414, 0
739, 0.048268844319845, 0.053136280112302, 0
740, 0.048250939135418, 0.047168857971485, 0
741, 0.048275432035706, 0.059091536773021, 0
742, 0.043113663426525, 0.056116350774668, 0
743, 0.043121988662573, 0.062067196242766, 0
744, 0.037968765985586, 0.05910047001994, 0
745, 0.053415647981651, 0.062081679965972, 0
746, 0.037974245993283, 0.065045590213229, 0
747, 0.032826837966832, 0.062074522993584, 0
748, 0.03282172015916, 0.056137625713449, 0
749, 0.032827493374338, 0.068018392665146, 0
750, 0.037978365559524, 0.070992645858855, 0
751, 0.058584251090006, 0.041214091755049, 0
752, 0.3487719817863, 0.059006818286038, 0
753, 0.11037608468181, 0.05912664756802, 0
754, 0.11556290537561, 0.062118749630744, 0
755, 0.11037816938967, 0.065114716977178, 0
756, 0.11556506509217, 0.068106737129717, 0
757, 0.11038046043256, 0.071102575517988, 0
758, 0.1051936881523, 0.068110739292756, 0
759, 0.11036953417755, 0.041162765925795, 0
760, 0.10518279779009, 0.038170789095007, 0
761, 0.11036733961171, 0.035174940634662, 0
762, 0.10518040557498, 0.032182659944632, 0
763, 0.14148392934007, 0.041151598102746, 0
764, 0.14149041210949, 0.0591153682027, 0
765, 0.14666854616484, 0.038155781904416, 0
766, 0.14148177841707, 0.035163671489271, 0
767, 0.14666642380101, 0.03216784607746, 0
768, 0.14147963083709, 0.029175730803182, 0
769, 0.13630578307108, 0.062111208521704, 0
770, 0.14149258580368, 0.065103309265442, 0
771, 0.13630794502416, 0.068099155806337, 0
772, 0.19333963577249, 0.041133488267604, 0
773, 0.1985240165303, 0.038137891368097, 0
774, 0.19333752934371, 0.035145869711708, 0
775, 0.19852199856466, 0.032150238904325, 0
776, 0.19333542507551, 0.029158186994101, 0
777, 0.19334610221468, 0.059096253560182, 0
778, 0.18816168961424, 0.062091954163268, 0
779, 0.19334833783447, 0.065083946309783, 0
780, 0.18816382797791, 0.068079676357504, 0
781, 0.31773319606128, 0.041105128348452, 0
782, 0.30738318221344, 0.059043993294034, 0
783, 0.3125642845309, 0.062032362234815, 0
784, 0.30738519728197, 0.065025096615025, 0
785, 0.31256749728446, 0.068013868535841, 0
786, 0.3073878173859, 0.071007474934397, 0
787, 0.36940311319993, 0.041128799183242, 0
788, 0.32290987012662, 0.038115543241281, 0
789, 0.31773207571837, 0.035126317189373, 0
790, 0.32291060006434, 0.032135574211198, 0
791, 0.3177309411171, 0.029145740306146, 0
792, 0.34876753126643, 0.041106256686986, 0
793, 0.34359804683261, 0.038123519096055, 0
794, 0.34876883273319, 0.035136565135374, 0
795, 0.34359670522981, 0.032151440760103, 0
796, 0.37455678083606, 0.038152542652419, 0
797, 0.36940309168378, 0.035174830941281, 0
798, 0.3745623241963, 0.032196450888693, 0
799, 0.36941565889064, 0.058979650300657, 0
800, 0.30220501260644, 0.068018038907598, 0
801, 0.35394413999588, 0.061985774928779, 0
802, 0.34877591096579, 0.064975809391922, 0
803, 0.35394979950183, 0.067956988562992, 0
804, 0.34878129272633, 0.070948746165869, 0
805, 0.34360524548928, 0.067965507972431, 0
806, 0.063750066403837, 0.038226659699055, 0
807, 0.05857951993978, 0.035246458930312, 0
808, 0.063748583331492, 0.032258187943952, 0
809, 0.11036512106665, 0.02918696736114, 0
810, 0.40529151509008, 0.03824582179187, 0
811, 0.36940622741519, 0.029217056911312, 0
812, 0.058576632132965, 0.029277135203088, 0
813, 0.053406651942203, 0.032263918763727, 0
814, 0.34876879505115, 0.029165166688023, 0
815, 0.027686427863063, 0.059105512421481, 0
816, 0.027681716543854, 0.053177615454215, 0
817, 0.1933504800308, 0.071071686338275, 0
818, 0.19853493533154, 0.068075913466997, 0
819, 0.14149475019519, 0.071091259650949, 0
820, 0.14667939111369, 0.068095407705253, 0
821, 0.053403602264158, 0.026296922154816, 0
822, 0.048236243431253, 0.029282490023172, 0
823, 0.10517834939677, 0.026195086748209, 0
824, 0.099993986462089, 0.02919041748923, 0
825, 0.37461712057616, 0.026331179048636, 0
826, 0.37973225504341, 0.029234064042929, 0
827, 0.063745823935126, 0.0262865580688, 0
828, 0.068920825962329, 0.029270856785217, 0
829, 0.34360956392798, 0.073941556132124, 0
830, 0.33843053431152, 0.070956662188924, 0
831, 0.34359743900723, 0.026177453748506, 0
832, 0.3229108930072, 0.026154340257155, 0
833, 0.14666427308785, 0.026179906933782, 0
834, 0.1518510722421, 0.029172020577595, 0
835, 0.032826437761536, 0.073967109257962, 0
836, 0.027678341398679, 0.070993194408001, 0
837, 0.18816598626959, 0.074067450319083, 0
838, 0.1829793034251, 0.071075418292048, 0
839, 0.35396448885942, 0.07391945707527, 0
840, 0.14668155886423, 0.074083357984949, 0
841, 0.1518661932794, 0.071087503667958, 0
842, 0.31257057479436, 0.073996519399258, 0
843, 0.40531734670603, 0.05591590513942, 0
844, 0.40020575790702, 0.058884674600244, 0
845, 0.4053337164851, 0.061835361214549, 0
846, 0.40020868782162, 0.064809154239733, 0
847, 0.40535564914484, 0.067766433441638, 0
848, 0.40021755216892, 0.070745625267167, 0
849, 0.39506762277855, 0.06778123679944, 0
850, 0.40541451387054, 0.073628050566516, 0
851, 0.39507498165225, 0.073725826977058, 0
852, 0.38991967404365, 0.070756474506378, 0
853, 0.19851989300168, 0.026162527935275, 0
854, 0.20370644555656, 0.029154606535936, 0
855, 0.037981381887284, 0.076944826250698, 0
856, 0.15184892014819, 0.02318408025945, 0
857, 0.15703570881012, 0.026176199349031, 0
858, 0.11556729209023, 0.074094701447737, 0
859, 0.14147748251129, 0.02318778055035, 0
860, 0.13629283241899, 0.026183614158145, 0
861, 0.13631015314829, 0.074087168973705, 0
862, 0.30220741235696, 0.07400153086418, 0
863, 0.29702373954072, 0.07101139545419, 0
864, 0.19853711652549, 0.074063666838101, 0
865, 0.20372159364117, 0.071067900916394, 0
866, 0.10519597488586, 0.07409814639557, 0
867, 0.10000962559789, 0.071106344592318, 0
868, 0.18298145769598, 0.07706324978127, 0
869, 0.17779484766483, 0.074071199878996, 0
870, 0.19333330667775, 0.023170441257218, 0
871, 0.18814880042669, 0.026166144679269, 0
872, 0.31774684281485, 0.0709972857816, 0
873, 0.31772984792656, 0.023163751254044, 0
874, 0.31254934289738, 0.026155829512532, 0
875, 0.048232733521829, 0.023317457415522, 0
876, 0.043070386226057, 0.026306859977948, 0
877, 0.20370437040991, 0.023166868970147, 0
878, 0.2088909772536, 0.026158967809111, 0
879, 0.20372374761892, 0.077055630214961, 0
880, 0.20890817125585, 0.074059862829507, 0
881, 0.34877141904538, 0.023188711507255, 0
882, 0.099992000630436, 0.023203191771192, 0
883, 0.094806221303452, 0.026211133123258, 0
884, 0.37978824253895, 0.023372439663425, 0
885, 0.38489385537189, 0.026263298848987, 0
886, 0.043073003055327, 0.032265568810084, 0
887, 0.037912017247712, 0.02929338977341, 0
888, 0.037915507032596, 0.035247719701689, 0
889, 0.032762030553133, 0.03227635591535, 0
890, 0.032755922658562, 0.026326639006526, 0
891, 0.02760745354028, 0.029309263537492, 0
892, 0.027601307613373, 0.023363259297103, 0
893, 0.027613086753044, 0.035282290417237, 0
894, 0.11555191352071, 0.032179074788624, 0
895, 0.11554981230963, 0.026191073849444, 0
896, 0.35912935650028, 0.07093696193401, 0
897, 0.022552482601197, 0.056141279816135, 0
898, 0.022547721861614, 0.050220243049951, 0
899, 0.027675771516594, 0.07693913760838, 0
900, 0.043137557353816, 0.073966119831386, 0
901, 0.068918089667763, 0.023295503135068, 0
902, 0.074096317024453, 0.026282109202369, 0
903, 0.36940087152838, 0.023256357722191, 0
904, 0.15186836287962, 0.077075453505355, 0
905, 0.15705296080284, 0.074079600595199, 0
906, 0.33841622679537, 0.07719056371428, 0
907, 0.38992684192798, 0.076708649273669, 0
908, 0.38479218493238, 0.073737942611465, 0
909, 0.2970261392402, 0.07699602723394, 0
910, 0.29184171218649, 0.074005470667799, 0
911, 0.022457693539093, 0.026342221706972, 0
912, 0.022528137808709, 0.073967573905612, 0
913, 0.35914304201375, 0.076898858938449, 0
914, 0.36429779653808, 0.073916497825876, 0
915, 0.10001211735347, 0.077093701729535, 0
916, 0.094826763773605, 0.074101950040943, 0
917, 0.10519822313918, 0.080086024565713, 0
918, 0.31775172168782, 0.076984800256135, 0
919, 0.29184411571421, 0.079990868006983, 0
920, 0.28665941100854, 0.077000071095163, 0
921, 0.2866572136253, 0.071014525315529, 0
922, 0.28147476723449, 0.07400903825124, 0
923, 0.3126249224912, 0.02013493827955, 0
924, 0.30754871952799, 0.022888338288737, 0
925, 0.41041046707456, 0.035304519042675, 0
926, 0.40529198496076, 0.03233649511182, 0
927, 0.41042970723366, 0.029378796782878, 0
928, 0.40531236792038, 0.026406361782832, 0
929, 0.41044219178489, 0.023441039066314, 0
930, 0.39550636241087, 0.080083938495134, 0
931, 0.32291081846707, 0.020172039972043, 0
932, 0.043141291022921, 0.079939479744244, 0
933, 0.048290255636544, 0.076944490457909, 0
934, 0.15712171527484, 0.020340800836502, 0
935, 0.16223501582386, 0.023205799394721, 0
936, 0.13620457978293, 0.020344913491746, 0
937, 0.36431247621013, 0.079889449693911, 0
938, 0.094828842243313, 0.080088477082255, 0
939, 0.089643997083051, 0.077097130664319, 0
940, 0.089641529387358, 0.071110991552209, 0
941, 0.084460883565867, 0.074107082027325, 0
942, 0.3849040412218, 0.079591021692326, 0
943, 0.084463585479592, 0.080090361684244, 0
944, 0.079281560268012, 0.077100439277597, 0
945, 0.0792785710709, 0.071119743578714, 0
946, 0.074100987095201, 0.074111963927797, 0
947, 0.063675529030431, 0.020429235988435, 0
948, 0.19853928618822, 0.080051449673342, 0
949, 0.52601615846092, 0.021077321545847, 0
950, 0.032779867214822, 0.02045699681558, 0
951, 0.1777970280894, 0.080059073355, 0
952, 0.3436162577279, 0.079920389742014, 0
953, 0.34359762410157, 0.020200749808848, 0
954, 0.40531428023343, 0.020551346383491, 0
955, 0.10517621710355, 0.02020710497579, 0
956, 0.30224028509809, 0.079868961145284, 0
957, 0.5199171289877, 0.079432090573809, 0
958, 0.1881466755184, 0.020178346340585, 0
959, 0.18296211837237, 0.023174086680963, 0
960, 0.032813612753609, 0.050204790145965, 0
961, 0.48873695863302, 0.020208947038447, 0
962, 0.4887811287369, 0.079789086817619, 0
963, 0.022452127719772, 0.020400627043078, 0
964, 0.074098105503451, 0.06813044665366, 0
965, 0.068923583435052, 0.071125757444304, 0
966, 0.06892591317479, 0.077101929164029, 0
967, 0.13109167170407, 0.023216369839475, 0
968, 0.20890604617734, 0.06807220695451, 0
969, 0.21409254640953, 0.071064152554346, 0
970, 0.21409474153721, 0.077051759099286, 0
971, 0.21935018264936, 0.073932700640069, 0
972, 0.21928870981492, 0.068047948796703, 0
973, 0.22447713467884, 0.071036379091372, 0
974, 0.22455081107423, 0.07689999505692, 0
975, 0.22966626825179, 0.074023545239313, 0
976, 0.22966894713775, 0.080010276278826, 0
977, 0.23484174025737, 0.077034291276661, 0
978, 0.23483757771436, 0.071050149422127, 0
979, 0.24002187036579, 0.074045648218725, 0
980, 0.24002376257482, 0.080033683599544, 0
981, 0.24520711769226, 0.077039170458387, 0
982, 0.24520474519446, 0.071052151793365, 0
983, 0.25039072167821, 0.074043998228546, 0
984, 0.25038833901424, 0.068057107749901, 0
985, 0.25557433692014, 0.071048592434866, 0
986, 0.25557680514296, 0.077035583073674, 0
987, 0.2606363879955, 0.074040078073388, 0
988, 0.26073564642974, 0.068049523344287, 0
989, 0.15705074937589, 0.068091514657235, 0
990, 0.1622248725255, 0.029172710482539, 0
991, 0.13112115782744, 0.065107063823883, 0
992, 0.13110571843878, 0.029183604228263, 0
993, 0.17779263623615, 0.068083346117962, 0
994, 0.074093523809099, 0.020302768651175, 0
995, 0.18296425793433, 0.029161894045937, 0
996, 0.17260806418622, 0.071079120678158, 0
997, 0.17777766310898, 0.026169845197841, 0
998, 0.17778819757816, 0.020203464480995, 0
999, 0.30739853024232, 0.029102784209132, 0
1000, 0.30221994447529, 0.026105168701985, 0
1001, 0.30218292494688, 0.020174630943294, 0
1002, 0.2969079461523, 0.022888267780261, 0
1003, 0.28147272447164, 0.068023473230123, 0
1004, 0.29699301888306, 0.029097624705053, 0
1005, 0.29180130465163, 0.026106793931965, 0
1006, 0.33843020448858, 0.029161967414136, 0
1007, 0.27634868815271, 0.070916314965758, 0
1008, 0.27637111299279, 0.076760201246967, 0
1009, 0.079269133560296, 0.023290144328579, 0
1010, 0.26061905545955, 0.080027052343694, 0
1011, 0.36425621742615, 0.032187332560937, 0
1012, 0.33325561685235, 0.073992483698108, 0
1013, 0.33325114686894, 0.067973052149412, 0
1014, 0.079275137562472, 0.029270550935102, 0
1015, 0.38497161778491, 0.020438983936473, 0
1016, 0.37987055508202, 0.01657739757887, 0
1017, 0.063757698794795, 0.074107220357587, 0
1018, 0.40022037345845, 0.029347432604468, 0
1019, 0.3847666918077, 0.067783430243038, 0
1020, 0.37960946831937, 0.070764526899656, 0
1021, 0.51381385315789, 0.020191923317155, 0
1022, 0.29171284390603, 0.020083393267303, 0
1023, 0.28661368770766, 0.023146916817009, 0
1024, 0.28662987548696, 0.029143948488557, 0
1025, 0.28145066342522, 0.026160338388401, 0
1026, 0.14668372700012, 0.080071317744272, 0
1027, 0.20888886748498, 0.020171218574051, 0
1028, 0.21407543202241, 0.02316330290263, 0
1029, 0.21407748238466, 0.029151003582057, 0
1030, 0.2192619706347, 0.026155408590316, 0
1031, 0.21919045768132, 0.020288085215999, 0
1032, 0.22443475745571, 0.023179886155489, 0
1033, 0.22444660796492, 0.029150835611359, 0
1034, 0.2296305742767, 0.02615583608115, 0
1035, 0.22962842642108, 0.020168310808602, 0
1036, 0.23481709720106, 0.023156392042428, 0
1037, 0.23481888834823, 0.029144546018131, 0
1038, 0.2400033395816, 0.02614854673398, 0
1039, 0.2400013878929, 0.020161070123958, 0
1040, 0.24518752033046, 0.023153165842349, 0
1041, 0.24518950720214, 0.029140374034039, 0
1042, 0.25037362498064, 0.026145053380654, 0
1043, 0.25037169538121, 0.020157912466212, 0
1044, 0.2555577419192, 0.023149836574988, 0
1045, 0.25549677838279, 0.017265156900896, 0
1046, 0.26067278160073, 0.020274328018709, 0
1047, 0.26073210749035, 0.026161588071138, 0
1048, 0.26591093344297, 0.023179091642985, 0
1049, 0.26592239232558, 0.029145707667306, 0
1050, 0.094806181448516, 0.020212516783782, 0
1051, 0.022440438433804, 0.079757748145079, 0
1052, 0.33325951548447, 0.079930009332678, 0
1053, 0.28144534586781, 0.020175637691497, 0
1054, 0.50160351140065, 0.01985106173458, 0
1055, 0.41052032665965, 0.070710257050589, 0
1056, 0.41058046451803, 0.076578904519612, 0
1057, 0.063751909707284, 0.080090000794893, 0
1058, 0.1570551578341, 0.080067549911939, 0
1059, 0.079266024082838, 0.017308630694701, 0
1060, 0.41568722781017, 0.073666561622693, 0
1061, 0.41581253578806, 0.079431171994177, 0
1062, 0.42087069817587, 0.076611478265657, 0
1063, 0.41558461980599, 0.02642010547067, 0
1064, 0.41559462958347, 0.020471054033737, 0
1065, 0.42074920643124, 0.023457625635751, 0
1066, 0.24510761187359, 0.082850969831245, 0
1067, 0.58373749219193, 0.042914653414927, 0
1068, 0.58637947544687, 0.048745650500553, 0
1069, 0.58995849657256, 0.043823981362295, 0
1070, 0.59238375381741, 0.049045251114607, 0
1071, 0.59565954529575, 0.044090624895561, 0
1072, 0.59824478091472, 0.049371957249073, 0
1073, 0.60153002970979, 0.044433849928966, 0
1074, 0.60415672767359, 0.04974267350958, 0
1075, 0.60743802825595, 0.044799065793606, 0
1076, 0.61008733783286, 0.050117711354677, 0
1077, 0.61335703143809, 0.045146897763113, 0
1078, 0.61602019271886, 0.050486945410738, 0
1079, 0.61930334969911, 0.045506401835262, 0
1080, 0.6219566480881, 0.05087234452601, 0
1081, 0.62526599966171, 0.045895368209704, 0
1082, 0.62791308645547, 0.051254967769381, 0
1083, 0.63122412972945, 0.046270100227253, 0
1084, 0.63388167088795, 0.051625825643524, 0
1085, 0.63718570200673, 0.046641470292735, 0
1086, 0.63984591328696, 0.05199901041932, 0
1087, 0.64314956498216, 0.047012776450587, 0
1088, 0.64580879565501, 0.052362291255253, 0
1089, 0.64911365777683, 0.04738333093946, 0
1090, 0.65177590268792, 0.052743901064866, 0
1091, 0.65507828862889, 0.047752623120864, 0
1092, 0.65774448356283, 0.053118199610316, 0
1093, 0.66104868013321, 0.048123585087432, 0
1094, 0.66371425179806, 0.053483298910834, 0
1095, 0.66702301328865, 0.048495505785415, 0
1096, 0.66968587244778, 0.053860125225471, 0
1097, 0.67299575683899, 0.048868759282954, 0
1098, 0.67565858827677, 0.0542341876743, 0
1099, 0.67896816989798, 0.049244601043881, 0
1100, 0.68163100362161, 0.054603888408829, 0
1101, 0.68494119990802, 0.049617349843447, 0
1102, 0.68760491706075, 0.0549793361199, 0
1103, 0.69091517433187, 0.049990667218786, 0
1104, 0.69357929795131, 0.055353115227832, 0
1105, 0.6968893802421, 0.050363977665191, 0
1106, 0.69955386729253, 0.055724751334873, 0
1107, 0.70286360633875, 0.050736036833941, 0
1108, 0.70552848082178, 0.056097607569212, 0
1109, 0.70883889339307, 0.051108756303935, 0
1110, 0.71150334978669, 0.056471219282036, 0
1111, 0.71481496474486, 0.051481854583076, 0
1112, 0.71747903366088, 0.056844769459031, 0
1113, 0.7207907608478, 0.051855141386708, 0
1114, 0.72345517089862, 0.057217931285969, 0
1115, 0.72676648450541, 0.052229284477125, 0
1116, 0.72943073811089, 0.057591444394566, 0
1117, 0.7327421928844, 0.052602767868906, 0
1118, 0.73540667887714, 0.057964957983068, 0
1119, 0.73871800270132, 0.052975943185838, 0
1120, 0.74138295034966, 0.05833811577115, 0
1121, 0.74469415040527, 0.053349159670847, 0
1122, 0.74735888142242, 0.058711543475987, 0
1123, 0.75067043947398, 0.053722464973514, 0
1124, 0.75333507122735, 0.059084965757137, 0
1125, 0.75664664705278, 0.054095838203734, 0
1126, 0.75931138089983, 0.059458261723178, 0
1127, 0.76262285414806, 0.054469389757615, 0
1128, 0.7652875352445, 0.059831680288531, 0
1129, 0.76859906898561, 0.054842749516477, 0
1130, 0.76593421029469, 0.049480481677602, 0
1131, 0.77191051423685, 0.049853785972755, 0
1132, 0.77457529237083, 0.055216141382419, 0
1133, 0.77788684848412, 0.05022715094355, 0
1134, 0.78055160308348, 0.055589535941685, 0
1135, 0.78386316414071, 0.050600518294019, 0
1136, 0.78652796441303, 0.055962920032496, 0
1137, 0.78983948122863, 0.050973925832657, 0
1138, 0.79250429659441, 0.056336301946282, 0
1139, 0.79581580563364, 0.051347298488225, 0
1140, 0.79848062148098, 0.056709630396049, 0
1141, 0.801792138665, 0.051720657672692, 0
1142, 0.80445696217907, 0.057083005023132, 0
1143, 0.80776848342263, 0.052094023885085, 0
1144, 0.81043330910117, 0.057456378438587, 0
1145, 0.81374483293513, 0.0524673921597, 0
1146, 0.81640966051981, 0.057829751306684, 0
1147, 0.81972118637035, 0.05284076177346, 0
1148, 0.82238601572121, 0.05820312377561, 0
1149, 0.8256975437161, 0.053214131594566, 0
1150, 0.82836237454469, 0.058576496041079, 0
1151, 0.83167390473497, 0.053587499322085, 0
1152, 0.83433873615363, 0.058949868007265, 0
1153, 0.83765026799663, 0.053960869592789, 0
1154, 0.84031509990674, 0.059323240592367, 0
1155, 0.8436266321167, 0.054334242499973, 0
1156, 0.82900907129309, 0.048225135792788, 0
1157, 0.84629146516122, 0.059696613021142, 0
1158, 0.84960299769211, 0.054707614000969, 0
1159, 0.84693816383422, 0.04934524325738, 0
1160, 0.85291375908361, 0.049730961414148, 0
1161, 0.85557923630873, 0.055083043863289, 0
1162, 0.85888997689477, 0.050106733482573, 0
1163, 0.86155555817455, 0.055457159195896, 0
1164, 0.86486708474222, 0.050468281842503, 0
1165, 0.86753204263868, 0.055828684436702, 0
1166, 0.87084359656635, 0.050839374997236, 0
1167, 0.87350845535422, 0.056201367687875, 0
1168, 0.87681999693842, 0.051212251728631, 0
1169, 0.87948483779366, 0.056574542480852, 0
1170, 0.88279546422663, 0.051600077593742, 0
1171, 0.88546106066135, 0.056950293451233, 0
1172, 0.8887837800818, 0.051984299932578, 0
1173, 0.89143939687837, 0.057325893180334, 0
1174, 0.89476337461626, 0.052345297962127, 0
1175, 0.89741661452085, 0.057697550759278, 0
1176, 0.90072824475274, 0.052708294076622, 0
1177, 0.90339024075548, 0.058067914662867, 0
1178, 0.90670208530726, 0.05307960119914, 0
1179, 0.90936639722336, 0.058441510255574, 0
1180, 0.91267767818241, 0.053452757729003, 0
1181, 0.9153421824649, 0.058814440095355, 0
1182, 0.91865322535885, 0.053826112859515, 0
1183, 0.92131751303523, 0.059187379979157, 0
1184, 0.92462812316337, 0.054200428586319, 0
1185, 0.9272920940655, 0.059560497083956, 0
1186, 0.93060241681872, 0.054574186185796, 0
1187, 0.93326414827891, 0.059932501994189, 0
1188, 0.93657154216804, 0.05494578776763, 0
1189, 0.93391081364867, 0.049591140709968, 0
1190, 0.93987848520634, 0.049964829607322, 0
1191, 0.94253503296744, 0.055322761422127, 0
1192, 0.9458402030066, 0.050338993019724, 0
1193, 0.94850053769668, 0.055683678871878, 0
1194, 0.95179914499976, 0.050710593289212, 0
1195, 0.95445194017681, 0.056048659196688, 0
1196, 0.91598887102184, 0.048464739794522, 0
1197, 0.74800531883404, 0.048359742259886, 0
1198, 0.71214897954003, 0.046117892107418, 0
1199, 0.89807810172407, 0.04736687026953, 0
1200, 0.73007761697059, 0.047240790353133, 0
1201, 0.80510365559769, 0.046731673591626, 0
1202, 0.88014334335433, 0.046261983877397, 0
1203, 0.61273114675432, 0.055450286198734, 0
1204, 0.77522195086717, 0.044864706754988, 0
1205, 0.68227721939968, 0.044257486909779, 0
1206, 0.94318511211463, 0.044990104729315, 0
1207, 0.95774351514528, 0.051085288450471, 0
1208, 0.86218178766573, 0.0451421085192, 0
1209, 0.66435325834276, 0.043127788664306, 0
1210, 0.63055613600644, 0.056632738677234, 0
1211, 0.66637206185904, 0.058850958941344, 0
1212, 0.96039456939109, 0.056414588474134, 0
1213, 0.6484597859685, 0.057736192276724, 0
1214, 0.64645373616745, 0.042029215889792, 0
1215, 0.62257915698963, 0.040507807289435, 0
1216, 0.68429218573179, 0.059968982581531, 0
1217, 0.60479386388544, 0.039476067321181, 0
1218, 0.7022177668872, 0.061085594172133, 0
1219, 0.95115561314901, 0.061049059414723, 0
1220, 0.78321634540219, 0.060951969434538, 0
1221, 0.86422052900022, 0.060817356021434, 0
1222, 0.9636841680986, 0.051459118613518, 0
1223, 0.96103641427871, 0.046130692072548, 0
1224, 0.80114544003649, 0.062071981904241, 0
1225, 0.88214964687541, 0.061937274468132, 0
1226, 0.72014288897747, 0.062207235320283, 0
1227, 0.8250508442432, 0.063565489257221, 0
1228, 0.73807098549937, 0.063327314650518, 0
1229, 0.90007923491264, 0.063057897245294, 0
1230, 0.96697070044028, 0.046503369493116, 0
1231, 0.96432756589529, 0.04118277098621, 0
1232, 0.96632958431779, 0.05678094658959, 0
1233, 0.91800680788145, 0.064175381813859, 0
1234, 0.84297993172964, 0.064685611806523, 0
1235, 0.75599963962499, 0.064447373502997, 0
1236, 0.97025669416953, 0.041556577576615, 0
1237, 0.96761517270788, 0.036232663452585, 0
1238, 0.96168091845676, 0.035858220449738, 0
1239, 0.96304554579706, 0.061736514047107, 0
1240, 0.96897508638642, 0.062101993098459, 0
1241, 0.96569400813335, 0.06705633571694, 0
1242, 0.97162251712631, 0.067421862591686, 0
1243, 0.85024969547487, 0.044356242690033, 0
1244, 0.81705635531805, 0.047478401581661, 0
1245, 0.81309813257163, 0.062818737907817, 0
1246, 0.79315098204127, 0.045984955307575, 0
1247, 0.69422537804166, 0.045002671011956, 0
1248, 0.92995601846582, 0.064920046388543, 0
1249, 0.6345266523922, 0.041291517675554, 0
1250, 0.60083316636526, 0.054744164228613, 0
1251, 0.96497458275105, 0.030899607633628, 0
1252, 0.95902941847112, 0.030527491146984, 0
1253, 0.9709109925154, 0.03127847960379, 0
1254, 0.59324569603859, 0.03889448911448, 0
1255, 0.97225919881336, 0.05714130018785, 0
1256, 0.96834301339855, 0.072375092069261, 0
1257, 0.96240947046636, 0.0720271321828, 0
1258, 0.97427314076006, 0.072744090888446, 0
1259, 0.9623293584722, 0.025562982089063, 0
1260, 0.95637928651874, 0.025189335218047, 0
1261, 0.9709903696246, 0.077696426427477, 0
1262, 0.97692340593473, 0.07806602873448, 0
1263, 0.93592720389645, 0.065294114590905, 0
1264, 0.9326193464279, 0.070278006199849, 0
1265, 0.93858913869086, 0.070654007066535, 0
1266, 0.93528201306685, 0.075635156035512, 0
1267, 0.92931096829828, 0.07526288860944, 0
1268, 0.94125034420608, 0.076006707330009, 0
1269, 0.84427332791847, 0.04398287169552, 0
1270, 0.84757455332199, 0.038987029487119, 0
1271, 0.84160677516485, 0.038619358633174, 0
1272, 0.84491802132426, 0.033630168550018, 0
1273, 0.83894349631932, 0.03325802120417, 0
1274, 0.85088403453028, 0.033996666501091, 0
1275, 0.84822916435542, 0.028640908411767, 0
1276, 0.85419443172363, 0.029019721158653, 0
1277, 0.84895629848831, 0.065058984380338, 0
1278, 0.845644764444, 0.070047984101413, 0
1279, 0.85162113268916, 0.070421356636856, 0
1280, 0.84830959880775, 0.075410357056401, 0
1281, 0.84233322972916, 0.075036984316594, 0
1282, 0.85428596767216, 0.075783729480815, 0
1283, 0.95307971600572, 0.03015708314827, 0
1284, 0.95042675795947, 0.024815888973186, 0
1285, 0.94712457340936, 0.029787144488659, 0
1286, 0.94446826742953, 0.024441132458906, 0
1287, 0.94116438536653, 0.029416055887877, 0
1288, 0.93850605998337, 0.024064848043202, 0
1289, 0.93519931329511, 0.02904454037121, 0
1290, 0.93253907054622, 0.023689972059337, 0
1291, 0.92923118517225, 0.028672222150186, 0
1292, 0.92656975249869, 0.023315240356151, 0
1293, 0.92326891593532, 0.028292749434469, 0
1294, 0.92059923545603, 0.022939724205355, 0
1295, 0.91729878301998, 0.027904551741428, 0
1296, 0.91463749514802, 0.022388537150456, 0
1297, 0.91131872574548, 0.027506223829176, 0
1298, 0.90866406896402, 0.02198078404966, 0
1299, 0.90534223757137, 0.027136796899891, 0
1300, 0.9026818841066, 0.021713883114351, 0
1301, 0.89936543272508, 0.026781780979612, 0
1302, 0.89670492601019, 0.021360892695525, 0
1303, 0.89338923943024, 0.026414755034616, 0
1304, 0.89072492490895, 0.02105365122059, 0
1305, 0.88741217546153, 0.026059002657415, 0
1306, 0.9259280068889, 0.033640408668582, 0
1307, 0.9080102202283, 0.0325093703066, 0
1308, 0.8900766931907, 0.031418310867728, 0
1309, 0.8841116117189, 0.031041523276675, 0
1310, 0.88143791251452, 0.025684184315362, 0
1311, 0.87813848909109, 0.030652514463685, 0
1312, 0.87545983787579, 0.02531136523017, 0
1313, 0.87215127891323, 0.030281917436461, 0
1314, 0.86949518730806, 0.024929031506475, 0
1315, 0.85152940742206, 0.023659356827781, 0
1316, 0.84556404283955, 0.023280836736679, 0
1317, 0.97755369663681, 0.067782198898042, 0
1318, 0.9596792286469, 0.020223032782196, 0
1319, 0.9656322363823, 0.020599155683781, 0
1320, 0.9319749458833, 0.080620560991544, 0
1321, 0.9260028090305, 0.080249776279276, 0
1322, 0.87279738331397, 0.019947428487588, 0
1323, 0.86683248282529, 0.019567877899823, 0
1324, 0.94180627653797, 0.019196735215616, 0
1325, 0.84499806440599, 0.080399357778781, 0
1326, 0.83894318593238, 0.079973872943009, 0
1327, 0.83634377615891, 0.074654926218718, 0
1328, 0.83303006109114, 0.079642478543225, 0
1329, 0.92987021938827, 0.018478496538087, 0
1330, 0.58858327192912, 0.054368773379097, 0
1331, 0.2866615047728, 0.082985999084481, 0
1332, 0.42075881923178, 0.01749574806863, 0
1333, 0.42592221257045, 0.020488713746579, 0
1334, 0.42099788005965, 0.08238149812525, 0
1335, 0.42605331086473, 0.079573494517219, 0
1336, 0.34877144364811, 0.017211032906907, 0
1337, 0.35394851175736, 0.020200011813689, 0
1338, 0.84887552815883, 0.018292217310213, 0
1339, 0.84290098594499, 0.017918053921473, 0
1340, 0.19333121320498, 0.017182633111417, 0
1341, 0.35934168183693, 0.082885531643104, 0
1342, 0.20372598587666, 0.083043444097025, 0
1343, 0.91793563890828, 0.017580252671671, 0
1344, 0.41047365950574, 0.083154974746511, 0
1345, 0.97361580226499, 0.083222319660963, 0
1346, 0.96770921126531, 0.082698876192337, 0
1347, 0.97954779725134, 0.083618375470298, 0
1348, 0.0092241065449912, 0.094956577659168, 0
1349, 0.99129901450877, 0.0050786652589669, 0
1350, 0.99082822891027, 0.09486286360352, 0
1351, 0.0089429473671439, 0.0056857706285536, 0
1352, 0.068927569408639, 0.083078465594754, 0
1353, 0.14117997873625, 0.016342353503898, 0
1354, 0.027398682348626, 0.083718830723261, 0
1355, 0.90629646634646, 0.016113774391094, 0
1356, 0.017424139913671, 0.053184292518448, 0
1357, 0.017419988404796, 0.04726646223048, 0
1358, 0.017426828906459, 0.059099286840283, 0
1359, 0.18298363914068, 0.083051123398566, 0
1360, 0.9828491484607, 0.078474503454081, 0
1361, 0.017316947657493, 0.023377062490405, 0
1362, 0.017306636044472, 0.01743939864471, 0
1363, 0.017335876482415, 0.029344760751713, 0
1364, 0.017381193941375, 0.07693727833684, 0
1365, 0.017600898790231, 0.082729689220988, 0
1366, 0.017394672990016, 0.070993618763561, 0
1367, 0.068917921402196, 0.065147555290287, 0
1368, 0.85484283036046, 0.018698363488179, 0
1369, 0.86618340617562, 0.029889114491881, 0
1370, 0.94455580302603, 0.071029738987843, 0
1371, 0.94721582235881, 0.076379020769902, 0
1372, 0.94391200309386, 0.081358083062095, 0
1373, 0.94987686662979, 0.081730057799097, 0
1374, 0.079275088960449, 0.06512518535086, 0
1375, 0.38488040388569, 0.032198705287523, 0
1376, 0.97289653363299, 0.046876814891894, 0
1377, 0.97617925193456, 0.0419328672767, 0
1378, 0.9788145218584, 0.047245366721269, 0
1379, 0.98209258657185, 0.04230686554155, 0
1380, 0.97945975366167, 0.036997020539917, 0
1381, 0.094810249228228, 0.032185099804824, 0
1382, 0.25037569149934, 0.0321319700924, 0
1383, 0.10000648626868, 0.065117508063098, 0
1384, 0.24520226026866, 0.065065558269599, 0
1385, 0.22446218966546, 0.065070944302101, 0
1386, 0.26074340970355, 0.032132137843361, 0
1387, 0.043064810486543, 0.02034095313139, 0
1388, 0.048229580542222, 0.01734927980481, 0
1389, 0.83563181246364, 0.038246919503762, 0
1390, 0.83296721160958, 0.032884705330159, 0
1391, 0.8296556908504, 0.037873713331603, 0
1392, 0.82699091785932, 0.032511383411262, 0
1393, 0.83030244150878, 0.02752237796929, 0
1394, 0.82432608577402, 0.027149015642486, 0
1395, 0.82101455613469, 0.032138015506417, 0
1396, 0.8183497234674, 0.026775648278899, 0
1397, 0.81503819363643, 0.03176464558525, 0
1398, 0.81237316915459, 0.026405340021825, 0
1399, 0.80906179995583, 0.031391784160957, 0
1400, 0.80639677111083, 0.02603256620106, 0
1401, 0.80308542894264, 0.031018596920035, 0
1402, 0.80040042947856, 0.025979066108808, 0
1403, 0.79710574089169, 0.030698568728839, 0
1404, 0.79442018915079, 0.025667899913986, 0
1405, 0.79112818579345, 0.030344454109053, 0
1406, 0.78845299600331, 0.025147967316721, 0
1407, 0.78515316337932, 0.029949862982867, 0
1408, 0.78247839828391, 0.024746635725429, 0
1409, 0.77917733367368, 0.029568291222189, 0
1410, 0.77649888912475, 0.024424016592237, 0
1411, 0.77320055552314, 0.029202008750409, 0
1412, 0.77053033716518, 0.023926109326475, 0
1413, 0.76722545484615, 0.028809062941853, 0
1414, 0.76454483567621, 0.023699738368205, 0
1415, 0.76124781469117, 0.028456924355587, 0
1416, 0.7585779648577, 0.023175324435553, 0
1417, 0.7552728636137, 0.028061903722062, 0
1418, 0.75260347039877, 0.022773180142963, 0
1419, 0.7492970896363, 0.027680109889253, 0
1420, 0.74663989998346, 0.022196521118655, 0
1421, 0.74332303319114, 0.027271446080204, 0
1422, 0.74066613930469, 0.021783399447277, 0
1423, 0.73734761020574, 0.026885569624349, 0
1424, 0.73468298171593, 0.021521266289341, 0
1425, 0.73136982401176, 0.02653739793447, 0
1426, 0.74001116738265, 0.032266660784658, 0
1427, 0.75793888403564, 0.033403063951604, 0
1428, 0.72870539103681, 0.021170654017725, 0
1429, 0.72539374128812, 0.026163221230732, 0
1430, 0.72272499663663, 0.020865791431609, 0
1431, 0.71941695026589, 0.025801091488896, 0
1432, 0.71674810909084, 0.020505740166329, 0
1433, 0.71344060670906, 0.025431738056729, 0
1434, 0.72208165865637, 0.031153688167539, 0
1435, 0.82763761737191, 0.022160014927488, 0
1436, 0.71076778688806, 0.020201777685125, 0
1437, 0.7074638957355, 0.025070570871085, 0
1438, 0.70479577443295, 0.019766456595449, 0
1439, 0.70148874885256, 0.024688975450688, 0
1440, 0.70415407620805, 0.030035993192201, 0
1441, 0.69817855857994, 0.029662434485277, 0
1442, 0.6955141393537, 0.024300862236965, 0
1443, 0.69220328815231, 0.029286557812274, 0
1444, 0.68953891975206, 0.023924806041423, 0
1445, 0.6862281154504, 0.028912364742119, 0
1446, 0.68356378563965, 0.023551005942075, 0
1447, 0.68025309306081, 0.028538699667539, 0
1448, 0.67785863872113, 0.023356680991441, 0
1449, 0.67432332020247, 0.028195035155184, 0
1450, 0.6721182328953, 0.021983988429543, 0
1451, 0.66839544429821, 0.027659836928117, 0
1452, 0.66565291162421, 0.022369175538941, 0
1453, 0.66234730690039, 0.027385658247994, 0
1454, 0.65967715803826, 0.021951327954973, 0
1455, 0.65636128705208, 0.027021402946997, 0
1456, 0.65370158597751, 0.021572403218769, 0
1457, 0.6503860284387, 0.026648056052485, 0
1458, 0.64771346290591, 0.021437488657919, 0
1459, 0.64441100680425, 0.026313794193869, 0
1460, 0.64173902016185, 0.021110928488523, 0
1461, 0.63843965513388, 0.025954622313516, 0
1462, 0.63577268204761, 0.020680694694555, 0
1463, 0.63247109136687, 0.025573315131521, 0
1464, 0.62980632382607, 0.020273248571463, 0
1465, 0.62650432492479, 0.025190889824751, 0
1466, 0.62383801300596, 0.019951584304322, 0
1467, 0.62054014273017, 0.024823167759977, 0
1468, 0.81577492736903, 0.021491743479941, 0
1469, 0.61787142361145, 0.019655162612012, 0
1470, 0.61457977341754, 0.024463384952705, 0
1471, 0.61191836709468, 0.019192066219011, 0
1472, 0.60862467293296, 0.024072984576985, 0
1473, 0.60595721993289, 0.018942568343014, 0
1474, 0.60267101328149, 0.023715190754231, 0
1475, 0.77920475568136, 0.019948875479986, 0
1476, 0.8033143041649, 0.020261182167269, 0
1477, 0.68166279885086, 0.018708938284177, 0
1478, 0.79215708716845, 0.020146745405842, 0
1479, 0.60000171812178, 0.018657079159736, 0
1480, 0.59672274421604, 0.02336122748409, 0
1481, 0.59406429720242, 0.018136544456826, 0
1482, 0.59078001850877, 0.022965860590222, 0
1483, 0.58811115757953, 0.017942796601759, 0
1484, 0.58483743639812, 0.022578659223771, 0
1485, 0.66312744746299, 0.016047545521341, 0
1486, 0.76183237757775, 0.018562885090685, 0
1487, 0.58219489248643, 0.017128008377048, 0
1488, 0.57889672631285, 0.022132850974414, 0
1489, 0.57625179690683, 0.016666854661858, 0
1490, 0.6928428262192, 0.019048031497904, 0
1491, 0.7503256586733, 0.017080084351906, 0
1492, 0.71445944597437, 0.015362882886618, 0
1493, 0.62057979540857, 0.015024892376874, 0
1494, 0.58771466021747, 0.027743990371368, 0
1495, 0.57295229838989, 0.021643012048715, 0
1496, 0.57028857756257, 0.016410856603111, 0
1497, 0.61723691440528, 0.029780632569693, 0
1498, 0.73809965897203, 0.016433387689336, 0
1499, 0.5993788671281, 0.028646656809852, 0
1500, 0.65902345360887, 0.032394429551618, 0
1501, 0.57481426338934, 0.026583217257553, 0
1502, 0.62916517905431, 0.030531777204357, 0
1503, 0.67694999263024, 0.033529973504789, 0
1504, 0.64110249188656, 0.031286964336082, 0
1505, 0.68889241440694, 0.034273415323852, 0
1506, 0.70084318574776, 0.035020329854184, 0
1507, 0.70681858534135, 0.035394362610744, 0
1508, 0.76989161410525, 0.034149797699476, 0
1509, 0.78782057435311, 0.03527079003879, 0
1510, 0.7997733757844, 0.036016011453845, 0
1511, 0.81172665947594, 0.036753724178682, 0
1512, 0.83037926327908, 0.074289422066171, 0
1513, 0.8270662101172, 0.079277412988181, 0
1514, 0.82440346408162, 0.073916425808824, 0
1515, 0.8210920244574, 0.078905486756343, 0
1516, 0.82375378854397, 0.084265822990179, 0
1517, 0.81777338684939, 0.084005975536553, 0
1518, 0.81511485352961, 0.078550947546456, 0
1519, 0.81179621459943, 0.083654661371986, 0
1520, 0.80913821957039, 0.078184391033647, 0
1521, 0.80581303852638, 0.083392271313887, 0
1522, 0.80316067736559, 0.077830651415626, 0
1523, 0.799835345432, 0.083040666492998, 0
1524, 0.79718389885398, 0.077464180534644, 0
1525, 0.79389386214114, 0.082109185759748, 0
1526, 0.79121328435365, 0.076998943954117, 0
1527, 0.78791541586908, 0.081769323004169, 0
1528, 0.78523753785632, 0.076615849809107, 0
1529, 0.78194544152074, 0.081293930950985, 0
1530, 0.7792623558874, 0.076223857746169, 0
1531, 0.77596595497891, 0.080970917067175, 0
1532, 0.77328568653853, 0.075855781366357, 0
1533, 0.76998904352642, 0.080606818671637, 0
1534, 0.76730920666922, 0.075484845109943, 0
1535, 0.76400828111799, 0.080304530937445, 0
1536, 0.76665872221468, 0.085896834801412, 0
1537, 0.76133212736013, 0.075123706927955, 0
1538, 0.75802881087787, 0.079981739912568, 0
1539, 0.75535516132676, 0.074760818684143, 0
1540, 0.75205203951393, 0.079616010826982, 0
1541, 0.74937868746779, 0.074390511524561, 0
1542, 0.74607142832633, 0.07931209059251, 0
1543, 0.7434016731929, 0.07402919777596, 0
1544, 0.74009433120401, 0.07895230147636, 0
1545, 0.73742515042291, 0.073660129383348, 0
1546, 0.7341137424481, 0.078648845632178, 0
1547, 0.73144817659889, 0.073299208494893, 0
1548, 0.72813671146288, 0.078289198204059, 0
1549, 0.72547177964721, 0.072930122849452, 0
1550, 0.72216035031981, 0.077919713801146, 0
1551, 0.71949560319441, 0.072558173477469, 0
1552, 0.71618424819036, 0.077547215321966, 0
1553, 0.71351958242472, 0.072185364160834, 0
1554, 0.71020823914448, 0.077174095885327, 0
1555, 0.71287286959874, 0.082536196593181, 0
1556, 0.70689687353772, 0.082162778258668, 0
1557, 0.7042322484508, 0.076800731716612, 0
1558, 0.70092093122259, 0.081789345345237, 0
1559, 0.69825633835163, 0.076427488687271, 0
1560, 0.69507641486235, 0.081350698642991, 0
1561, 0.6923025582059, 0.076043344392276, 0
1562, 0.6891234180935, 0.080835136001151, 0
1563, 0.68633433762061, 0.075644618897339, 0
1564, 0.68302175142959, 0.08049898765905, 0
1565, 0.68033921170967, 0.075273379886393, 0
1566, 0.67708323212626, 0.080232717965916, 0
1567, 0.67435479231339, 0.074934408924846, 0
1568, 0.67109181151135, 0.079853141866741, 0
1569, 0.66838788900228, 0.074550069126361, 0
1570, 0.66505785367548, 0.079505676395695, 0
1571, 0.66240499199276, 0.074179515866971, 0
1572, 0.65909036451319, 0.079220054430865, 0
1573, 0.6564310648188, 0.073821794657063, 0
1574, 0.65311803017167, 0.078863760954103, 0
1575, 0.65045772488346, 0.073454721801883, 0
1576, 0.64713958553147, 0.078593214373596, 0
1577, 0.64448483645407, 0.073100417136756, 0
1578, 0.64116751438862, 0.078239668633963, 0
1579, 0.63851484612275, 0.072734704875029, 0
1580, 0.63520792806275, 0.07771746558438, 0
1581, 0.63254874446543, 0.072326330318422, 0
1582, 0.62924356156134, 0.077312756820676, 0
1583, 0.62658431454299, 0.07195780152946, 0
1584, 0.62330054814204, 0.076621477564133, 0
1585, 0.62062495599385, 0.071532429130313, 0
1586, 0.61733562555365, 0.076322646281887, 0
1587, 0.61466473235282, 0.07115919573879, 0
1588, 0.61138490744837, 0.075860437113035, 0
1589, 0.60871189238788, 0.0707758785071, 0
1590, 0.60541652659772, 0.075747347854658, 0
1591, 0.60275752261355, 0.07045379796612, 0
1592, 0.59946505298177, 0.075426182097859, 0
1593, 0.59680620349275, 0.070101697504112, 0
1594, 0.5935150704283, 0.075066208135985, 0
1595, 0.59616932080672, 0.080402994908096, 0
1596, 0.59022187663764, 0.080030741359712, 0
1597, 0.58756991326302, 0.074696386659605, 0
1598, 0.58427661261814, 0.079658153590231, 0
1599, 0.60870485102015, 0.080991907702054, 0
1600, 0.58183613997526, 0.07446313467586, 0
1601, 0.57857182220284, 0.079448023019692, 0
1602, 0.59287290480754, 0.085372128585872, 0
1603, 0.62516662160088, 0.082676547108765, 0
1604, 0.63804767094362, 0.083636129347419, 0
1605, 0.64985216853058, 0.084120793862799, 0
1606, 0.62392387707908, 0.06660026152017, 0
1607, 0.60603813842209, 0.06548641037585, 0
1608, 0.64182300854085, 0.067728984733646, 0
1609, 0.65974088532449, 0.068832234589542, 0
1610, 0.67766672540415, 0.069942863896903, 0
1611, 0.69559529033568, 0.071064946465096, 0
1612, 0.77659325873289, 0.07092993172133, 0
1613, 0.79452230777519, 0.072050016669339, 0
1614, 0.80647428610871, 0.072808450562543, 0
1615, 0.85759750132181, 0.070794728867897, 0
1616, 0.86026233722744, 0.076157101873115, 0
1617, 0.85695080243535, 0.081146103735064, 0
1618, 0.8629271724702, 0.081519476206371, 0
1619, 0.8662387074865, 0.076530473741286, 0
1620, 0.86890354306462, 0.081892848573298, 0
1621, 0.87221507935549, 0.076903846385141, 0
1622, 0.87487991395045, 0.082266220867651, 0
1623, 0.87819144959626, 0.07727722030572, 0
1624, 0.88085628219113, 0.082639591609768, 0
1625, 0.88416781432092, 0.077650603296773, 0
1626, 0.88683264525238, 0.083012961899748, 0
1627, 0.89014417439768, 0.078023980027818, 0
1628, 0.89280899816387, 0.083386325751723, 0
1629, 0.89612051098409, 0.078397422567851, 0
1630, 0.89878693311483, 0.083733784271544, 0
1631, 0.90209706548286, 0.078766564320964, 0
1632, 0.90476364624044, 0.084101848401886, 0
1633, 0.90807325629038, 0.079138134783222, 0
1634, 0.9054082895305, 0.073781355693863, 0
1635, 0.91138402943338, 0.074154426364325, 0
1636, 0.91405001339076, 0.079514221039524, 0
1637, 0.89345570053706, 0.073035086390855, 0
1638, 0.86955024375845, 0.071541472354448, 0
1639, 0.12075190918296, 0.071098831130739, 0
1640, 0.12075408245304, 0.077086801304407, 0
1641, 0.11556949870121, 0.080082656250839, 0
1642, 0.12075624097509, 0.083074754736148, 0
1643, 0.13629712083065, 0.038159509292621, 0
1644, 0.1259408877849, 0.080078933973249, 0
1645, 0.15218412617881, 0.016343001788379, 0
1646, 0.16223969736822, 0.077071666135617, 0
1647, 0.16224194630246, 0.083059641093968, 0
1648, 0.18815313139104, 0.038141544462096, 0
1649, 0.17260595916866, 0.065091311116463, 0
1650, 0.17777973796504, 0.032157620596428, 0
1651, 0.079283974279369, 0.083081242475167, 0
1652, 0.31257331833643, 0.079980148972149, 0
1653, 0.92333756812167, 0.074893267181944, 0
1654, 0.31255439322191, 0.03811759894661, 0
1655, 0.2970222919599, 0.065028089035172, 0
1656, 0.32809008862864, 0.02316325975713, 0
1657, 0.32809229229312, 0.017180648538469, 0
1658, 0.27629857447494, 0.065016784915828, 0
1659, 0.28665650223968, 0.065030442011787, 0
1660, 0.9855379149364, 0.08383135313064, 0
1661, 0.28145929859669, 0.032148383246997, 0
1662, 0.037667004454897, 0.082942436858576, 0
1663, 0.3280857108732, 0.035130040256253, 0
1664, 0.39004822799174, 0.023295692682965, 0
1665, 0.39013358713891, 0.017471272915845, 0
1666, 0.12594299802153, 0.086066924079512, 0
1667, 0.13112769697284, 0.08307111185995, 0
1668, 0.20370229406509, 0.017179095747753, 0
1669, 0.36946662442939, 0.076906835848338, 0
1670, 0.36948607316014, 0.082872835355031, 0
1671, 0.95051576244642, 0.071400632982796, 0
1672, 0.35393577173138, 0.038127728945696, 0
1673, 0.4152921445433, 0.055874135366819, 0
1674, 0.60262431032918, 0.014388547152989, 0
1675, 0.94978341415302, 0.035130253289075, 0
1676, 0.93786128247749, 0.034396786734481, 0
1677, 0.26608382213879, 0.016317884933876, 0
1678, 0.13100103126044, 0.01738180693589, 0
1679, 0.12589967670556, 0.020233227715882, 0
1680, 0.1623234974547, 0.01737463507664, 0
1681, 0.86884364004908, 0.035259368215294, 0
1682, 0.88677115103249, 0.03640663987868, 0
1683, 0.66181794080889, 0.08454811933239, 0
1684, 0.048211265367993, 0.083080268996739, 0
1685, 0.89403564569456, 0.016082222565085, 0
1686, 0.88805964734392, 0.0157082948805, 0
1687, 0.85683761364215, 0.034408992957847, 0
1688, 0.89273084036091, 0.036759929067024, 0
1689, 0.37963142543339, 0.064819233343661, 0
1690, 0.22433440340585, 0.083780561715427, 0
1691, 0.37449085093598, 0.067827278969346, 0
1692, 0.31769109270553, 0.083081899584084, 0
1693, 0.65050320160898, 0.016387827863258, 0
1694, 0.83562923563308, 0.084908217624894, 0
1695, 0.25508458569426, 0.083947730042878, 0
1696, 0.79545669703029, 0.088324252587981, 0
1697, 0.72483248546538, 0.083108590782784, 0
1698, 0.97034979152596, 0.087988276689325, 0
1699, 0.72604036924311, 0.015813022315645, 0
1700, 0.58548531511094, 0.0122593914049, 0
1701, 0.6385083672821, 0.015796012472735, 0
1702, 0.67989295297377, 0.085180925011638, 0
1703, 0.73677732437116, 0.08402989844307, 0
1704, 0.17779905158124, 0.086046982007857, 0
1705, 0.23019954175214, 0.086093755291961, 0
1706, 0.87040115604136, 0.014678888615094, 0
1707, 0.87642010594021, 0.015139158137612, 0
1708, 0.96297714386509, 0.015327042007407, 0
1709, 0.96893083899747, 0.015718544720506, 0
1710, 0.9570244714796, 0.014889861112192, 0
1711, 0.97158619466847, 0.02098754205177, 0
1712, 0.97488656352415, 0.016032132900379, 0
1713, 0.97753346065802, 0.021353721503789, 0
1714, 0.98082926804544, 0.016401471509271, 0
1715, 0.98341694542193, 0.021745436360759, 0
1716, 0.98536928165041, 0.03737434657903, 0
1717, 0.86446359544912, 0.014352749185252, 0
1718, 0.9846354877892, 0.047549685865791, 0
1719, 0.9814387075875, 0.052535784536729, 0
1720, 0.58102593766593, 0.084552710228722, 0
1721, 0.57507619960899, 0.084234809615108, 0
1722, 0.57245796263168, 0.078132256560958, 0
1723, 0.56909040215371, 0.083713124534531, 0
1724, 0.56598918987412, 0.078097021881075, 0
1725, 0.56326877737812, 0.083288482574522, 0
1726, 0.85961860375666, 0.086323263172443, 0
1727, 0.85370337701945, 0.086092086193784, 0
1728, 0.74872981890938, 0.084776678597427, 0
1729, 0.18814455224908, 0.014190477689151, 0
1730, 0.69765713059525, 0.086650545341199, 0
1731, 0.26061845082723, 0.08557113671471, 0
1732, 0.26612320370721, 0.083629922929544, 0
1733, 0.022523113964604, 0.044277071850446, 0
1734, 0.0174037685766, 0.0413458042418, 0
1735, 0.98274240531549, 0.032071972988168, 0
1736, 0.58502178765912, 0.06874910121376, 0
1737, 0.043073516528455, 0.03822085621342, 0
1738, 0.037920960698573, 0.041199787594868, 0
1739, 0.12586893237899, 0.014410107690995, 0
1740, 0.12072111680693, 0.017246001373224, 0
1741, 0.12031491751236, 0.010709049779382, 0
1742, 0.11554557101962, 0.014215109665131, 0
1743, 0.70350782456827, 0.040383088692918, 0
1744, 0.36425822621557, 0.061955996539058, 0
1745, 0.24519095413618, 0.035127937894418, 0
1746, 0.90871955074176, 0.068792987875085, 0
1747, 0.21927661890969, 0.062077080739926, 0
1748, 0.72878326574931, 0.067941546313023, 0
1749, 0.74671218523575, 0.06905618535586, 0
1750, 0.26592826304078, 0.035123629349288, 0
1751, 0.76464102596635, 0.070176555292005, 0
1752, 0.12073653084765, 0.029183217928845, 0
1753, 0.25038522580854, 0.062069574795802, 0
1754, 0.12073872946671, 0.035171130287383, 0
1755, 0.88150297535163, 0.072288239177299, 0
1756, 0.83368964417798, 0.069299654579882, 0
1757, 0.83361398443003, 0.022533384630565, 0
1758, 0.83094915085131, 0.017171014084034, 0
1759, 0.82497278325354, 0.016797644678217, 0
1760, 0.17779057045018, 0.062095596985254, 0
1761, 0.16742166751216, 0.068087328253762, 0
1762, 0.16741954549731, 0.062099382195771, 0
1763, 0.17259334408838, 0.029165434260864, 0
1764, 0.17259549522996, 0.035153243350383, 0
1765, 0.16742488526462, 0.020219338740493, 0
1766, 0.16742638624943, 0.08006343117812, 0
1767, 0.084443300001153, 0.026265725226366, 0
1768, 0.084444739260065, 0.032248997216937, 0
1769, 0.28663856142324, 0.035142797216249, 0
1770, 0.27118096394984, 0.067909476513237, 0
1771, 0.271124753372, 0.06202307152002, 0
1772, 0.38478734168249, 0.061847096315492, 0
1773, 0.2711085323648, 0.032141124421085, 0
1774, 0.07926525204102, 0.035237781072337, 0
1775, 0.27627616538962, 0.02317210235169, 0
1776, 0.27635215235515, 0.017331951698323, 0
1777, 0.28159209953497, 0.014243491263114, 0
1778, 0.32808701289702, 0.070976855580371, 0
1779, 0.32808298954103, 0.064989525973353, 0
1780, 0.33325432081643, 0.061997104739522, 0
1781, 0.33326587993008, 0.0201820126699, 0
1782, 0.32292031149014, 0.079987294921674, 0
1783, 0.048279898482582, 0.070984099968851, 0
1784, 0.053424530300762, 0.074002579699362, 0
1785, 0.1674548814805, 0.014419779180922, 0
1786, 0.012572432214417, 0.056144178272121, 0
1787, 0.42606262226505, 0.027092067167028, 0
1788, 0.88944878413082, 0.041715356962945, 0
1789, 0.59950109818, 0.0860176376391, 0
1790, 0.37462827748669, 0.079861604578179, 0
1791, 0.39519978653907, 0.020292923101976, 0
1792, 0.39521015346475, 0.014360333449074, 0
1793, 0.42612482903726, 0.072962079476528, 0
1794, 0.043050905344665, 0.014844768050236, 0
1795, 0.048042797436847, 0.010797674473878, 0
1796, 0.053668546943581, 0.014247813082156, 0
1797, 0.87156989163276, 0.087088366621128, 0
1798, 0.98651014175692, 0.016833654857829, 0
1799, 0.32313071302604, 0.086028411727646, 0
1800, 0.022534073331805, 0.014899394531097, 0
1801, 0.92867712753833, 0.085449424918223, 0
1802, 0.92270783127706, 0.085017184908597, 0
1803, 0.93464115812746, 0.085950440867242, 0
1804, 0.29192839114894, 0.085467304039925, 0
1805, 0.28710974980465, 0.089390257331406, 0
1806, 0.28151510398674, 0.085981441682032, 0
1807, 0.012538269606561, 0.044282482624274, 0
1808, 0.012321747475891, 0.026359137676123, 0
1809, 0.3119649265369, 0.08601814949032, 0
1810, 0.41617542091231, 0.014418022354486, 0
1811, 0.20925241298788, 0.014216987158638, 0
1812, 0.42584410374368, 0.014671738353432, 0
1813, 0.43108752464499, 0.017539535799406, 0
1814, 0.01258068040102, 0.038345612478955, 0
1815, 0.19842613608164, 0.085839709098068, 0
1816, 0.19333557229979, 0.08301400556434, 0
1817, 0.84646902234421, 0.013281944241015, 0
1818, 0.073781209657116, 0.014800630078752, 0
1819, 0.19332918547737, 0.011194724985149, 0
1820, 0.012495459545411, 0.073882441587093, 0
1821, 0.42597166102517, 0.085380520191392, 0
1822, 0.43120358970097, 0.082549652413816, 0
1823, 0.88352546129825, 0.087790163556749, 0
1824, 0.23992380724177, 0.085810684463088, 0
1825, 0.24526470638547, 0.089113710089831, 0
1826, 0.33340074946311, 0.014435370772135, 0
1827, 0.34347201657045, 0.014458661102896, 0
1828, 0.15691288004581, 0.085824415462871, 0
1829, 0.32292353293778, 0.014217210663038, 0
1830, 0.35385169720969, 0.01439017534365, 0
1831, 0.35910586266204, 0.017239988870181, 0
1832, 0.35911005801827, 0.023203987004059, 0
1833, 0.012579325821911, 0.062023304238639, 0
1834, 0.16746758926257, 0.085868277762126, 0
1835, 0.37414819499595, 0.085824788663845, 0
1836, 0.2503698503459, 0.014170651134876, 0
1837, 0.25519085997233, 0.011672754841033, 0
1838, 0.11543471087164, 0.085833505194613, 0
1839, 0.08438671679903, 0.085980759218877, 0
1840, 0.56700380323772, 0.02110553110842, 0
1841, 0.56432661938048, 0.016027743806629, 0
1842, 0.56084545630204, 0.020821204919264, 0
1843, 0.55832485234067, 0.015713166221931, 0
1844, 0.98700069278468, 0.052803175261641, 0
1845, 0.98402844765115, 0.057814677344085, 0
1846, 0.99010250525184, 0.05841591218683, 0
1847, 0.98647237140541, 0.063378163988428, 0
1848, 0.58471334518428, 0.036569801430768, 0
1849, 0.063893667354231, 0.085822313441112, 0
1850, 0.058597609998245, 0.083010841287006, 0
1851, 0.41535166920121, 0.0677301734808, 0
1852, 0.95946611504147, 0.0098861923787186, 0
1853, 0.94658921487323, 0.086450584893918, 0
1854, 0.95253896280099, 0.087082073713787, 0
1855, 0.95582539640098, 0.082372463927611, 0
1856, 0.89558015567449, 0.088918494180799, 0
1857, 0.77861138374962, 0.086643595861539, 0
1858, 0.56575887108965, 0.088859429526503, 0
1859, 0.36912608120034, 0.088429013932045, 0
1860, 0.82782607162419, 0.010593737878338, 0
1861, 0.8341498658844, 0.012114410808521, 0
1862, 0.57861351530151, 0.070300798825267, 0
1863, 0.98390597900937, 0.011354858253992, 0
1864, 0.85660717337381, 0.090802005010666, 0
1865, 0.078438676229698, 0.01061411170884, 0
1866, 0.084304586642828, 0.01418889819187, 0
1867, 0.084196359314039, 0.0088928929310766, 0
1868, 0.068929972859709, 0.089057332831318, 0
1869, 0.96440014656595, 0.087795085500256, 0
1870, 0.57772950289728, 0.089779724760827, 0
1871, 0.59519812496247, 0.090676013748482, 0
1872, 0.18281013910859, 0.088764563493729, 0
1873, 0.58031749335289, 0.033381197210787, 0
1874, 0.97224269903657, 0.010669294855639, 0
1875, 0.17737144005784, 0.091672880660807, 0
1876, 0.017674325077041, 0.010861619839072, 0
1877, 0.012287212923297, 0.014507792577793, 0
1878, 0.059102045629482, 0.089446517854909, 0
1879, 0.42134985646505, 0.088040651607061, 0
1880, 0.57391093991386, 0.010920268120423, 0
1881, 0.9303885324999, 0.090528892994609, 0
1882, 0.192699211591, 0.089421549528637, 0
1883, 0.57462227360061, 0.035332225557316, 0
1884, 0.43111013492173, 0.010873264708252, 0
1885, 0.43628509841773, 0.014535406524425, 0
1886, 0.4364455028683, 0.020201159284102, 0
1887, 0.44196045628254, 0.017313380922358, 0
1888, 0.089867024557043, 0.010522136449594, 0
1889, 0.007357296821722, 0.058969730251017, 0
1890, 0.57017628556961, 0.031475214586957, 0
1891, 0.43119211513443, 0.089183964367277, 0
1892, 0.43648098409737, 0.085506502005853, 0
1893, 0.43652767202267, 0.079871658801466, 0
1894, 0.44204119732358, 0.082751587243999, 0
1895, 0.58872025408739, 0.090141908555393, 0
1896, 0.0073024604151625, 0.041284285399917, 0
1897, 0.70957033522628, 0.087383577535324, 0
1898, 0.71563182035724, 0.087906536107875, 0
1899, 0.38954295367433, 0.010812463310674, 0
1900, 0.39510965751973, 0.0092018286653263, 0
1901, 0.40086951175866, 0.010923466527603, 0
1902, 0.078713855074963, 0.089477342289563, 0
1903, 0.80850294219235, 0.089009101004371, 0
1904, 0.56166502886669, 0.010737907827695, 0
1905, 0.94830230013326, 0.091586562240753, 0
1906, 0.99005729257254, 0.011831818356524, 0
1907, 0.42897757618888, 0.067262384367368, 0
1908, 0.98225034485608, 0.089247319769901, 0
1909, 0.42897067661803, 0.032754829235662, 0
1910, 0.35920623528881, 0.010670511084581, 0
1911, 0.36441975716072, 0.014191791975454, 0
1912, 0.83214398201739, 0.0064686726806244, 0
1913, 0.56284340339927, 0.072074744316061, 0
1914, 0.95436905794253, 0.0095284994009143, 0
1915, 0.95067624288607, 0.014896336144271, 0
1916, 0.20369243178009, 0.089355280772199, 0
1917, 0.20914222496792, 0.086004063702873, 0
1918, 0.13154669169516, 0.089767393206996, 0
1919, 0.13631452516361, 0.086063312576639, 0
1920, 0.12597805079447, 0.091115491320743, 0
1921, 0.93730749334599, 0.091339394461769, 0
1922, 0.20372866729683, 0.010791762661919, 0
1923, 0.44088395493436, 0.071679414727455, 0
1924, 0.44089108051314, 0.028340413063052, 0
1925, 0.55448810857334, 0.020589560234338, 0
1926, 0.55238604553889, 0.015346382101492, 0
1927, 0.16200646537401, 0.010978675129729, 0
1928, 0.13129315295066, 0.011045447305108, 0
1929, 0.44152711744435, 0.011662606922256, 0
1930, 0.44669010181485, 0.014479488512999, 0
1931, 0.5600156760682, 0.078015767521421, 0
1932, 0.55788431068293, 0.083619537009353, 0
1933, 0.4416398998569, 0.088411545630608, 0
1934, 0.44675952428954, 0.085541954447691, 0
1935, 0.82195964647885, 0.01145138072094, 0
1936, 0.81747008086395, 0.0078914492518363, 0
1937, 0.81279871313948, 0.011202732614344, 0
1938, 0.80718509219984, 0.009600113559141, 0
1939, 0.80835987876807, 0.01524020100707, 0
1940, 0.80293793826156, 0.014204093698499, 0
1941, 0.79802820597591, 0.017717785437875, 0
1942, 0.79369129009656, 0.014439593742659, 0
1943, 0.78786680269839, 0.01497855575534, 0
1944, 0.98824299833595, 0.089460048829208, 0
1945, 0.27600501094467, 0.011014388808429, 0
1946, 0.55021925404151, 0.07460676398476, 0
1947, 0.54822546171307, 0.080308674509498, 0
1948, 0.54241212403274, 0.081830173855992, 0
1949, 0.5464466560086, 0.085844420809755, 0
1950, 0.54162046716657, 0.087875850577661, 0
1951, 0.53641788320209, 0.083994866961122, 0
1952, 0.45278875800322, 0.024587191019047, 0
1953, 0.45473061340863, 0.019173453362307, 0
1954, 0.46072463667993, 0.017663795316042, 0
1955, 0.45664315802335, 0.013208172106874, 0
1956, 0.46258206822455, 0.012196635519313, 0
1957, 0.46664450530933, 0.016555940894459, 0
1958, 0.46834831477143, 0.010725128771269, 0
1959, 0.47254898195549, 0.015469750096231, 0
1960, 0.47425347204445, 0.0095587991292968, 0
1961, 0.47814642390385, 0.01431632999814, 0
1962, 0.45273273715962, 0.075454972187916, 0
1963, 0.45473626778283, 0.080857494627282, 0
1964, 0.46072131174495, 0.082362447024319, 0
1965, 0.45595477428441, 0.085833198425068, 0
1966, 0.46135794939088, 0.088817348642226, 0
1967, 0.46644402175298, 0.083615614090987, 0
1968, 0.46819408542204, 0.089547368954906, 0
1969, 0.47251847244083, 0.08459143757407, 0
1970, 0.47431432570401, 0.090523664375302, 0
1971, 0.47818555284607, 0.085689911282519, 0
1972, 0.44637302976224, 0.0087256910973908, 0
1973, 0.96712710379856, 0.093813370971352, 0
1974, 0.95842388682771, 0.088622895763296, 0
1975, 0.54421293053476, 0.023969490892506, 0
1976, 0.54215827157484, 0.018281012750565, 0
1977, 0.53614135012044, 0.017116950026143, 0
1978, 0.54016377239239, 0.011471642173842, 0
1979, 0.53383016965545, 0.01129299429031, 0
1980, 0.52985992340249, 0.016173356452765, 0
1981, 0.54638688934275, 0.014007085575984, 0
1982, 0.58368859931001, 0.057292617648726, 0
1983, 0.58484968602871, 0.06287359558646, 0
1984, 0.82049656817298, 0.089430342286719, 0
1985, 0.98865076221226, 0.032350992040307, 0
1986, 0.99115427520428, 0.037675742135801, 0
1987, 0.99166315485278, 0.027055876258169, 0
1988, 0.95423718289878, 0.094058319416617, 0
1989, 0.18840267796358, 0.0083945137694045, 0
1990, 0.52602623520585, 0.078863778533422, 0
1991, 0.52357912640984, 0.084301162229322, 0
1992, 0.51745253434035, 0.084828214388483, 0
1993, 0.52986257608, 0.083863798949889, 0
1994, 0.53281826601035, 0.089564619987632, 0
1995, 0.52686655236734, 0.08950554861066, 0
1996, 0.47752870523652, 0.020576121159828, 0
1997, 0.48291423488597, 0.017777131602874, 0
1998, 0.48733733748457, 0.014422258576136, 0
1999, 0.49317659576924, 0.015022709987841, 0
2000, 0.47754651159403, 0.07944914987882, 0
2001, 0.48297427690692, 0.082243983179828, 0
2002, 0.48741130851376, 0.085532233788587, 0
2003, 0.49319866374418, 0.085084437714435, 0
2004, 0.51393520590859, 0.079939351351539, 0
2005, 0.51130147723549, 0.085391034568914, 0
2006, 0.50768017939023, 0.080163365947325, 0
2007, 0.50446961861423, 0.085580596260784, 0
2008, 0.51981870454566, 0.020571810989096, 0
2009, 0.51714981269087, 0.015254167134022, 0
2010, 0.51125375502961, 0.014945973198804, 0
2011, 0.52337407540892, 0.01569635651753, 0
2012, 0.52687865696615, 0.010722114318052, 0
2013, 0.44653705293664, 0.091387803271609, 0
2014, 0.97307946523276, 0.094407872362262, 0
2015, 0.55746398102063, 0.026312762756715, 0
2016, 0.98887996395785, 0.078872169255021, 0
2017, 0.98611930208074, 0.073527803326783, 0
2018, 0.99178063781678, 0.073672192337469, 0
2019, 0.50779191696248, 0.019951879144431, 0
2020, 0.50529236576486, 0.014740050051888, 0
2021, 0.012522570056963, 0.032323991350076, 0
2022, 0.017461183977227, 0.035340705153101, 0
2023, 0.53828647670289, 0.077380514690166, 0
2024, 0.46468980856459, 0.077742582300973, 0
2025, 0.46478961914905, 0.022294705740392, 0
2026, 0.53213589817149, 0.02186622865524, 0
2027, 0.5746898926271, 0.065730514405995, 0
2028, 0.57296239126713, 0.072240589840287, 0
2029, 0.012670501694885, 0.067922604552993, 0
2030, 0.98082154070197, 0.06275696798286, 0
2031, 0.97624150246263, 0.089188586281037, 0
2032, 0.017526236406552, 0.065021783374086, 0
2033, 0.18295778039346, 0.011198351856598, 0
2034, 0.17722888326454, 0.008472113475332, 0
2035, 0.043080079351502, 0.044178943454076, 0
2036, 0.04824506980553, 0.041208473713071, 0
2037, 0.94785536832861, 0.066049686450989, 0
2038, 0.95381933897352, 0.06642777068128, 0
2039, 0.98011597728175, 0.026734742094486, 0
2040, 0.53592814371258, 0.0057025791269348, 0
2041, 0.043086305461004, 0.05013865951972, 0
2042, 0.94519330992377, 0.060688621014623, 0
2043, 0.50810913511265, 0.090396420000097, 0
2044, 0.50219161311408, 0.090925544438596, 0
2045, 0.022472868103239, 0.032317742519253, 0
2046, 0.49919128896873, 0.014607499853564, 0
2047, 0.98507563329122, 0.094697096526335, 0
2048, 0.99466182918947, 0.090275309018413, 0
2049, 0.014958570324922, 0.005179147363131, 0
2050, 0.089617515163807, 0.023253130892673, 0
2051, 0.98504137749076, 0.0051791774917625, 0
2052, 0.015005414581652, 0.094844597159224, 0
2053, 0.011786978186459, 0.089822694817303, 0
2054, 0.0055042480135543, 0.090337215679154, 0
2055, 0.008904417217236, 0.084766987442024, 0
2056, 0.0178241696997, 0.088872918824296, 0
2057, 0.024176818862107, 0.089457045862286, 0
2058, 0.026928986289705, 0.094778484342396, 0
2059, 0.029962362662018, 0.089619873645203, 0
2060, 0.036790236254176, 0.089173794177197, 0
2061, 0.52390654939907, 0.0054491869668333, 0
2062, 0.98020303789079, 0.07313065855183, 0
2063, 0.98342930766176, 0.068199847888817, 0
2064, 0.86088866176266, 0.019147503972495, 0
2065, 0.86018370360529, 0.029470556721064, 0
2066, 0.86283029824284, 0.034837602461791, 0
2067, 0.59085561099742, 0.069737414287563, 0
2068, 0.59434212208002, 0.064907340476853, 0
2069, 0.60012351920131, 0.065159550816492, 0
2070, 0.59750079477784, 0.059799766746878, 0
2071, 0.59201752963317, 0.059639353452771, 0
2072, 0.60338276561804, 0.060169747450341, 0
2073, 0.60935044949665, 0.060490025658335, 0
2074, 0.61199712951486, 0.06583468602062, 0
2075, 0.61795681111112, 0.066231989344956, 0
2076, 0.62126353036936, 0.061236753472555, 0
2077, 0.62723440557536, 0.06161938030331, 0
2078, 0.62457503650339, 0.056276849353826, 0
2079, 0.63320614387962, 0.061994530522683, 0
2080, 0.63652640967239, 0.056994590908576, 0
2081, 0.012379912299469, 0.020445378389876, 0
2082, 0.98787368745712, 0.042594508994931, 0
2083, 0.99419856079726, 0.043351853637244, 0
2084, 0.053397016112074, 0.086069100408635, 0
2085, 0.96961241273504, 0.051828659413834, 0
2086, 0.36426431645727, 0.067924727608249, 0
2087, 0.97420914279626, 0.026327995355584, 0
2088, 0.012726767241278, 0.050204836457672, 0
2089, 0.37971774286819, 0.035177434336101, 0
2090, 0.38487759346595, 0.038144993056542, 0
2091, 0.38999690268666, 0.035219520982978, 0
2092, 0.59347177182041, 0.028262358062381, 0
2093, 0.58993168218743, 0.033822431821169, 0
2094, 0.59616004482106, 0.033784847101167, 0
2095, 0.6020890320602, 0.0340659422278, 0
2096, 0.027684198271492, 0.065047251389542, 0
2097, 0.037930336417008, 0.047162601358135, 0
2098, 0.032777838387844, 0.04418763646279, 0
2099, 0.032767471352077, 0.038230723894226, 0
2100, 0.027637288555428, 0.041269318553923, 0
2101, 0.94914219518977, 0.04537065839766, 0
2102, 0.38028907621982, 0.094842298106108, 0
2103, 0.38323110656406, 0.089638955477048, 0
2104, 0.3893992482029, 0.088802728967636, 0
2105, 0.39223476993478, 0.094673024939959, 0
2106, 0.39518043835304, 0.089624938629234, 0
2107, 0.39817606963682, 0.094795176866595, 0
2108, 0.40121301443565, 0.089640430651943, 0
2109, 0.40718079648426, 0.089634262211828, 0
2110, 0.40407036844505, 0.084510465253352, 0
2111, 0.41318893846092, 0.088985198554656, 0
2112, 0.61128140707454, 0.02939790496149, 0
2113, 0.61394426587341, 0.034766479795007, 0
2114, 0.61990123803601, 0.03513470231581, 0
2115, 0.61662843629462, 0.040154216040858, 0
2116, 0.62587084355173, 0.035523238440955, 0
2117, 0.389922960864, 0.064814234721181, 0
2118, 0.39001641146337, 0.02926320748215, 0
2119, 0.6257718926165, 0.094733969865072, 0
2120, 0.62273382779227, 0.089221983799616, 0
2121, 0.61677438493696, 0.089566198874079, 0
2122, 0.61878145655949, 0.08430274892113, 0
2123, 0.62893746076952, 0.08846532493906, 0
2124, 0.63512415591499, 0.089315924912729, 0
2125, 0.61360767924256, 0.084588572526523, 0
2126, 0.61099698162977, 0.089812996779173, 0
2127, 0.61532544296998, 0.060842434605588, 0
2128, 0.026926393228649, 0.0050377310296305, 0
2129, 0.032929876287706, 0.0051295561760358, 0
2130, 0.029879010497127, 0.009682333784368, 0
2131, 0.035925454472622, 0.0095655153931555, 0
2132, 0.41013385661658, 0.094700974895676, 0
2133, 0.022561045810217, 0.068014229519976, 0
2134, 0.6017459457773, 0.0049036103027169, 0
2135, 0.60777603185301, 0.004885468392713, 0
2136, 0.6112408643933, 0.0099133256544893, 0
2137, 0.61720771599378, 0.009995016484568, 0
2138, 0.61978028460697, 0.0051123285659536, 0
2139, 0.62575012755703, 0.0050254274048918, 0
2140, 0.62919267462124, 0.010212418910621, 0
2141, 0.63516119336947, 0.010358949921087, 0
2142, 0.59011596130791, 0.0050043916539198, 0
2143, 0.59360443107571, 0.0098109997573222, 0
2144, 0.58419174084128, 0.0061039477089126, 0
2145, 0.60782075628713, 0.094858424465384, 0
2146, 0.60479041684704, 0.089638966533989, 0
2147, 0.053419182717521, 0.044197542348383, 0
2148, 0.053411435220742, 0.038228716155994, 0
2149, 0.57165350859535, 0.0053030436549253, 0
2150, 0.57979240824213, 0.011171024495897, 0
2151, 0.38024235670774, 0.0051963341486951, 0
2152, 0.38308092380204, 0.010555165496543, 0
2153, 0.37705366047456, 0.010548381346759, 0
2154, 0.37413389150126, 0.015218176084603, 0
2155, 0.37423392096331, 0.0051693497028879, 0
2156, 0.36226025262881, 0.0050078646608915, 0
2157, 0.3539413360264, 0.026179251865533, 0
2158, 0.084451221686788, 0.056134991657715, 0
2159, 0.089633295977182, 0.059127195641326, 0
2160, 0.079273263867072, 0.059131263566133, 0
2161, 0.084452194982825, 0.062119581143777, 0
2162, 0.074093938858837, 0.062135139494547, 0
2163, 0.068914153819175, 0.059159681462696, 0
2164, 0.063738309795104, 0.062153141447275, 0
2165, 0.089636375979241, 0.065116727925343, 0
2166, 0.063741554910095, 0.05614771540812, 0
2167, 0.094820109904015, 0.062123707006128, 0
2168, 0.95317245664785, 0.076794409532306, 0
2169, 0.95913168783846, 0.07710876327625, 0
2170, 0.41013095269315, 0.0051643153179017, 0
2171, 0.4072214429306, 0.010682316408685, 0
2172, 0.63513412967428, 0.030912814105125, 0
2173, 0.63779820867338, 0.036264608803838, 0
2174, 0.64377601308074, 0.036652061974827, 0
2175, 0.63184027126876, 0.035901884567733, 0
2176, 0.95509338814576, 0.045752285219698, 0
2177, 0.97553705369669, 0.052183344461153, 0
2178, 0.056884007778452, 0.094815500721778, 0
2179, 0.9431768501002, 0.0051366789042523, 0
2180, 0.94077862418832, 0.010236640844108, 0
2181, 0.93489199574889, 0.010167880536463, 0
2182, 0.94640589879413, 0.010269759624515, 0
2183, 0.27111276302183, 0.038116958337449, 0
2184, 0.074093771132882, 0.056148325207289, 0
2185, 0.61381682969315, 0.094842447982859, 0
2186, 0.70948328109958, 0.040755804316514, 0
2187, 0.71279398942386, 0.035767277325773, 0
2188, 0.089625955962359, 0.041185774821629, 0
2189, 0.094810315483314, 0.038182931922363, 0
2190, 0.9372192171666, 0.044616057593257, 0
2191, 0.93125175707978, 0.044236002833941, 0
2192, 0.044933038185704, 0.0050598509421684, 0
2193, 0.63585689438366, 0.067356724307942, 0
2194, 0.26074369146658, 0.038118584569433, 0
2195, 0.97490330858309, 0.062450903392733, 0
2196, 0.60801992473874, 0.034427877097427, 0
2197, 0.93126474158361, 0.0051518292668387, 0
2198, 0.92894358679616, 0.010095771900431, 0
2199, 0.92294187319546, 0.010035415676972, 0
2200, 0.36873830717511, 0.094235217258919, 0
2201, 0.97354138658929, 0.036612746402484, 0
2202, 0.0449121706071, 0.095050700602508, 0
2203, 0.048052769313065, 0.089566206467529, 0
2204, 0.042776223142697, 0.085935073946205, 0
2205, 0.42160964995576, 0.0058128765895742, 0
2206, 0.4217664184528, 0.094119386621469, 0
2207, 0.8595167108959, 0.039784835417517, 0
2208, 0.35393620292416, 0.032158333344743, 0
2209, 0.050925183489794, 0.0050269232449462, 0
2210, 0.71545921003931, 0.041128032262217, 0
2211, 0.7181250829102, 0.046491472263211, 0
2212, 0.72143519949863, 0.041501493268821, 0
2213, 0.64779375937363, 0.068096003913984, 0
2214, 0.6451406872365, 0.062729894228027, 0
2215, 0.65110871795945, 0.063106325368882, 0
2216, 0.6544314026333, 0.058117727373979, 0
2217, 0.91736197686364, 0.074523634560952, 0
2218, 0.69753311536338, 0.0400105836576, 0
2219, 0.33842823189255, 0.064981337083463, 0
2220, 0.25037729960051, 0.038119103523899, 0
2221, 0.24519802031773, 0.059077073786253, 0
2222, 0.2400148802805, 0.062073087983578, 0
2223, 0.71683080516815, 0.067196842736442, 0
2224, 0.71085506848951, 0.066823121689421, 0
2225, 0.35063586673369, 0.0051380128143482, 0
2226, 0.65304898142087, 0.032020319316846, 0
2227, 0.65571285707196, 0.037390826364885, 0
2228, 0.66168574588787, 0.037763289306084, 0
2229, 0.64974624482831, 0.037025278219388, 0
2230, 0.65838179081383, 0.042760592531883, 0
2231, 0.66766068954318, 0.038138743431469, 0
2232, 0.67032838578894, 0.043503927037518, 0
2233, 0.099995855919872, 0.035179470701046, 0
2234, 0.70617348942976, 0.04574636736745, 0
2235, 0.96827375126428, 0.025942627069603, 0
2236, 0.074094244389276, 0.032256310928208, 0
2237, 0.50000174139425, 0.0050770480528422, 0
2238, 0.51194887920132, 0.0051076633488561, 0
2239, 0.4881191178115, 0.095135001383158, 0
2240, 0.48807624259804, 0.0049038471105645, 0
2241, 0.51794963684609, 0.094933808177297, 0
2242, 0.43421012493413, 0.094842559529908, 0
2243, 0.43417661368487, 0.0051839487587951, 0
2244, 0.66571600945934, 0.069199762260736, 0
2245, 0.66305609598857, 0.063842413064304, 0
2246, 0.66903062844694, 0.06421693340021, 0
2247, 0.67234609301282, 0.059228527880576, 0
2248, 0.52992912794062, 0.094804231576233, 0
2249, 0.094823481818463, 0.068112871530007, 0
2250, 0.10000401482025, 0.059129299910747, 0
2251, 0.45818828256097, 0.094883705317544, 0
2252, 0.45768807061123, 0.0048910132154438, 0
2253, 0.54164438906896, 0.094185025664363, 0
2254, 0.084457440657773, 0.068116551929705, 0
2255, 0.92196386378046, 0.048839336223727, 0
2256, 0.91929897583043, 0.043489539217685, 0
2257, 0.91333605764235, 0.043112970941022, 0
2258, 0.91665958776811, 0.038171533689024, 0
2259, 0.92527433617013, 0.043858616143385, 0
2260, 0.54779756269381, 0.004944028755795, 0
2261, 0.5540341641893, 0.094689488230231, 0
2262, 0.55600936207974, 0.089034669984975, 0
2263, 0.11036218445693, 0.083038902649627, 0
2264, 0.11028847675851, 0.088763483648071, 0
2265, 0.10518569874583, 0.086007876469323, 0
2266, 0.10508757391298, 0.091677910028499, 0
2267, 0.10001698785812, 0.083060879491014, 0
2268, 0.094989903221718, 0.085953720505305, 0
2269, 0.90274358284107, 0.068419806645365, 0
2270, 0.67099249685136, 0.033134679251616, 0
2271, 0.22445880136706, 0.059085088575868, 0
2272, 0.22964508857076, 0.062077278113083, 0
2273, 0.91074406235296, 0.084406201665638, 0
2274, 0.90742719027615, 0.089494623238189, 0
2275, 0.91673498286781, 0.084600623702526, 0
2276, 0.68291852700908, 0.033900328314293, 0
2277, 0.67960942088613, 0.038889226254164, 0
2278, 0.68558255754976, 0.039262017547428, 0
2279, 0.69155870494552, 0.039637627789209, 0
2280, 0.63779774223886, 0.0051484957815696, 0
2281, 0.71416720394104, 0.06183360516065, 0
2282, 0.68363999571807, 0.070319848621125, 0
2283, 0.68097719460001, 0.064958766432903, 0
2284, 0.68695350855665, 0.065333210623084, 0
2285, 0.69026731618266, 0.060344558477228, 0
2286, 0.25555969716981, 0.035125566089913, 0
2287, 0.099997380980532, 0.041164925950218, 0
2288, 0.10518912324262, 0.056134297000465, 0
2289, 0.67169268631479, 0.069573349046064, 0
2290, 0.29181740333689, 0.032131792980107, 0
2291, 0.29700489485724, 0.035137990945622, 0
2292, 0.30219647129495, 0.032115879978003, 0
2293, 0.25556807420035, 0.065061067259339, 0
2294, 0.26074714273755, 0.062058940467948, 0
2295, 0.25556499525207, 0.059071590934041, 0
2296, 0.64707846107657, 0.03165774568225, 0
2297, 0.28147381709197, 0.062038769788736, 0
2298, 0.9060550277537, 0.063430486891518, 0
2299, 0.10519126109255, 0.062122201468711, 0
2300, 0.91929285665629, 0.0051298489625119, 0
2301, 0.91666746696779, 0.011295572623466, 0
2302, 0.91008651401589, 0.01049803726562, 0
2303, 0.65376805442368, 0.06846236854961, 0
2304, 0.70156806847183, 0.071438957322581, 0
2305, 0.69890431132714, 0.066077075373421, 0
2306, 0.70488015385183, 0.066449240267718, 0
2307, 0.40020436327745, 0.035286811587142, 0
2308, 0.90404029140624, 0.047721363402161, 0
2309, 0.90136994596229, 0.042404398318848, 0
2310, 0.90736471138531, 0.042760224607481, 0
2311, 0.72280717376073, 0.067569026740137, 0
2312, 0.68962539631531, 0.070685899035056, 0
2313, 0.24000551749081, 0.032135780315009, 0
2314, 0.23482098525897, 0.035131744654651, 0
2315, 0.22963423690753, 0.032140802622489, 0
2316, 0.22445008767724, 0.035136012069845, 0
2317, 0.22963717567468, 0.038127193069689, 0
2318, 0.21926375100994, 0.032143755111922, 0
2319, 0.21407959563098, 0.03513889492495, 0
2320, 0.21926578908467, 0.038131087041643, 0
2321, 0.20889325983589, 0.032146813888395, 0
2322, 0.66499966761371, 0.032769444807295, 0
2323, 0.89676729050189, 0.068046326892874, 0
2324, 0.29184013846652, 0.068020911360165, 0
2325, 0.29184064906728, 0.062038279256667, 0
2326, 0.110378938951, 0.077083834471246, 0
2327, 0.20370869199522, 0.03514233386684, 0
2328, 0.2296516467677, 0.068057452815143, 0
2329, 0.23483189011459, 0.065068119073237, 0
2330, 0.23482864930298, 0.059081355306472, 0
2331, 0.91469604898352, 0.069163682141825, 0
2332, 0.90717013565538, 0.005206850644839, 0
2333, 0.90419161676646, 0.010371480424396, 0
2334, 0.89820374580296, 0.010371473393215, 0
2335, 0.91215595709645, 0.016336540715768, 0
2336, 0.70754389347219, 0.071811918507082, 0
2337, 0.038118403391991, 0.017864889123018, 0
2338, 0.24000703009965, 0.038123267865018, 0
2339, 0.13631243509174, 0.080075310439628, 0
2340, 0.72805834345554, 0.031525890634962, 0
2341, 0.73403489146534, 0.031894263851264, 0
2342, 0.73669942890695, 0.037259813837113, 0
2343, 0.74267556055526, 0.037633780576609, 0
2344, 0.73936416229074, 0.042623654864461, 0
2345, 0.74534029203684, 0.042997103295849, 0
2346, 0.7486516182364, 0.038008266278756, 0
2347, 0.73338807819112, 0.042250611554968, 0
2348, 0.75131653563765, 0.043370435632424, 0
2349, 0.75398160563613, 0.04873315483943, 0
2350, 0.75729278588433, 0.043743987871297, 0
2351, 0.74202917543441, 0.047986651679772, 0
2352, 0.73072327557123, 0.036886716931292, 0
2353, 0.72741194671773, 0.041877038422577, 0
2354, 0.21409269953255, 0.065072513387343, 0
2355, 0.20890421100137, 0.062083809113852, 0
2356, 0.20371955590005, 0.065080095963185, 0
2357, 0.1985329645002, 0.062088181546152, 0
2358, 0.21408850672698, 0.05908720741256, 0
2359, 0.20371735779237, 0.059092424967572, 0
2360, 0.8941032274563, 0.062685091365247, 0
2361, 0.12592299552767, 0.032175985342288, 0
2362, 0.31774180325563, 0.065010635516754, 0
2363, 0.73475956024296, 0.068312056862712, 0
2364, 0.73209507342004, 0.062952795531564, 0
2365, 0.74073615759989, 0.06868082414809, 0
2366, 0.69486821119931, 0.034648491487066, 0
2367, 0.11554583908047, 0.020209539750203, 0
2368, 0.11036060877055, 0.017212086538054, 0
2369, 0.11025728551903, 0.011464156294829, 0
2370, 0.10515719096914, 0.014259287650508, 0
2371, 0.10491444977521, 0.0085177850689944, 0
2372, 0.099987418590725, 0.011226766254148, 0
2373, 0.099989588783138, 0.017214663624955, 0
2374, 0.89520961619706, 0.0051804654480845, 0
2375, 0.89221556886291, 0.01037159098607, 0
2376, 0.90003455045506, 0.016084179974408, 0
2377, 0.71610541920419, 0.030782048725405, 0
2378, 0.1103626579546, 0.023200309870473, 0
2379, 0.32808678390507, 0.029149359456003, 0
2380, 0.75268817341747, 0.069433063313029, 0
2381, 0.75002355698891, 0.064072198710859, 0
2382, 0.75866505037224, 0.069798244549204, 0
2383, 0.20889494634846, 0.038134457204937, 0
2384, 0.11555636729884, 0.044154866793459, 0
2385, 0.7639148174201, 0.03378379133016, 0
2386, 0.76658051139145, 0.039132128334629, 0
2387, 0.77255692579035, 0.039504499783601, 0
2388, 0.76924554004066, 0.044492014071213, 0
2389, 0.77853340850501, 0.039876056770943, 0
2390, 0.76326925408167, 0.044118484491672, 0
2391, 0.78119837539189, 0.045238045750937, 0
2392, 0.15703825544921, 0.032164859023956, 0
2393, 0.1622249424029, 0.0351573613261, 0
2394, 0.15704005205621, 0.038152389132008, 0
2395, 0.77061689784973, 0.070556580231966, 0
2396, 0.77392843563555, 0.065567556885795, 0
2397, 0.77990476928492, 0.065940952195589, 0
2398, 0.77724003525863, 0.060578518914645, 0
2399, 0.78588115050233, 0.066314349415964, 0
2400, 0.78919272349943, 0.061325318547179, 0
2401, 0.76795228127855, 0.065192960620715, 0
2402, 0.15186401547012, 0.065099543728249, 0
2403, 0.15704850227786, 0.062103450672899, 0
2404, 0.15186178063319, 0.059111561893836, 0
2405, 0.14667720112629, 0.062107457736495, 0
2406, 0.12073174416145, 0.023201944186829, 0
2407, 0.88812642857584, 0.062311743224882, 0
2408, 0.89079107646591, 0.067673193300748, 0
2409, 0.78184433262139, 0.034895843327777, 0
2410, 0.79379649807473, 0.035651028599669, 0
2411, 0.79048588340186, 0.040625862097351, 0
2412, 0.79646213661424, 0.041000903751066, 0
2413, 0.80243865385558, 0.04137163423356, 0
2414, 0.78257022385388, 0.071293245590886, 0
2415, 0.80049753364031, 0.072441453112997, 0
2416, 0.79783367763972, 0.067064035718997, 0
2417, 0.8038098796441, 0.067439840847436, 0
2418, 0.80978640188711, 0.067810606406403, 0
2419, 0.75196268916213, 0.033027262922635, 0
2420, 0.15185327011755, 0.035160134731888, 0
2421, 0.1414992337353, 0.083067501455715, 0
2422, 0.14134348303556, 0.088543384815614, 0
2423, 0.14649703521258, 0.085692591218971, 0
2424, 0.87552661989662, 0.071914846613244, 0
2425, 0.87286177803857, 0.066552474220161, 0
2426, 0.85249005991071, 0.013661743707727, 0
2427, 0.85854133695574, 0.014061528188419, 0
2428, 0.81770302443516, 0.037127025807033, 0
2429, 0.81439150290576, 0.042116025379703, 0
2430, 0.80841513002664, 0.041743059587244, 0
2431, 0.82036785798286, 0.042489384747306, 0
2432, 0.82367937694429, 0.037500379560141, 0
2433, 0.82634421696997, 0.042862752008396, 0
2434, 0.78854648431044, 0.071668173866233, 0
2435, 0.83232053159385, 0.043236084340118, 0
2436, 0.83498542270643, 0.048598492805963, 0
2437, 0.83966581892387, 0.069672899851682, 0
2438, 0.82771515460955, 0.068927527723834, 0
2439, 0.82173922699361, 0.068554446902894, 0
2440, 0.81842731596617, 0.073546425929848, 0
2441, 0.81576282653818, 0.068182076094969, 0
2442, 0.81245065060003, 0.073180482928978, 0
2443, 0.77586770296721, 0.034527212706697, 0
2444, 0.80575017467351, 0.036382468422387, 0
2445, 0.23481474523277, 0.017169515056836, 0
2446, 0.23997414968416, 0.014207133260908, 0
2447, 0.22937887281379, 0.014671104653185, 0
2448, 0.23404278632252, 0.010719602188612, 0
2449, 0.91892532619191, 0.094793802580844, 0
2450, 0.85928143712575, 0.0049792945892754, 0
2451, 0.76946107784431, 0.095064586123651, 0
2452, 0.77250096478062, 0.08979344632508, 0
2453, 0.76347305444324, 0.095060555390449, 0
2454, 0.76047904191617, 0.089628440019053, 0
2455, 0.75357513481049, 0.089768327043593, 0
2456, 0.75134435981943, 0.094956334813906, 0
2457, 0.21853770111334, 0.094864349839171, 0
2458, 0.21476145369612, 0.08913101649834, 0
2459, 0.22120587771144, 0.089545258954721, 0
2460, 0.21867693756838, 0.084960044080541, 0
2461, 0.88323353293413, 0.095052604144678, 0
2462, 0.70958084336621, 0.0050885816274715, 0
2463, 0.70608086743401, 0.010204044404839, 0
2464, 0.70000840034741, 0.010232369879445, 0
2465, 0.69750640412944, 0.005162590524428, 0
2466, 0.6939898085812, 0.01017649455336, 0
2467, 0.68824406911995, 0.0099953158527953, 0
2468, 0.68556575175222, 0.0051230923623033, 0
2469, 0.68263502041157, 0.010371489353607, 0
2470, 0.67963030102252, 0.0051753348837511, 0
2471, 0.67664511738385, 0.010078283176987, 0
2472, 0.67065863549521, 0.0099718157813014, 0
2473, 0.67326579793467, 0.01524596163296, 0
2474, 0.66766489441329, 0.0051192222910081, 0
2475, 0.66467119291656, 0.010371504679077, 0
2476, 0.66167681677979, 0.005174711533192, 0
2477, 0.65880414639633, 0.01041820048713, 0
2478, 0.65310069066068, 0.010880433246086, 0
2479, 0.65648570502413, 0.016209623048593, 0
2480, 0.64712476254141, 0.01077343741342, 0
2481, 0.64970110107987, 0.0051860911309767, 0
2482, 0.71556886311593, 0.0050671188551845, 0
2483, 0.71812515261433, 0.010230557294258, 0
2484, 0.89520958083832, 0.094814219139013, 0
2485, 0.16494165032024, 0.094942093124357, 0
2486, 0.23062389752082, 0.0050595805306127, 0
2487, 0.72754490894158, 0.005148926945133, 0
2488, 0.73053892215569, 0.010371561721969, 0
2489, 0.7363994730066, 0.010436849979644, 0
2490, 0.73949970049398, 0.0051966651221843, 0
2491, 0.74238195575292, 0.010441341934885, 0
2492, 0.74893138500132, 0.010755198018951, 0
2493, 0.74426571328876, 0.016333285285357, 0
2494, 0.75467691757777, 0.013103699071974, 0
2495, 0.75156840568786, 0.004865749721516, 0
2496, 0.78141831876642, 0.0051749212240875, 0
2497, 0.7843699499073, 0.010006115165949, 0
2498, 0.77840556644095, 0.010103708212732, 0
2499, 0.77543970992571, 0.0051393290252351, 0
2500, 0.77242305140592, 0.010305194051869, 0
2501, 0.76671296794924, 0.010215444694507, 0
2502, 0.77016109009648, 0.015126901367936, 0
2503, 0.76351403866568, 0.0051049100683399, 0
2504, 0.76047904191617, 0.010371563713523, 0
2505, 0.88323353575018, 0.0051325110979273, 0
2506, 0.87990626130421, 0.010175935027768, 0
2507, 0.3023951494049, 0.09487875364119, 0
2508, 0.29932643416531, 0.090442488057737, 0
2509, 0.30617654637721, 0.089344506208436, 0
2510, 0.81137754712078, 0.094672569931426, 0
2511, 0.80222747121191, 0.088858931692423, 0
2512, 0.79908860909757, 0.094452304855615, 0
2513, 0.73952095843819, 0.094871308769989, 0
2514, 0.74251497005988, 0.089628438278031, 0
2515, 0.71573661733592, 0.09418550420606, 0
2516, 0.87125748502994, 0.0050035783525887, 0
2517, 0.099372597938247, 0.0053956138715901, 0
2518, 0.28437855157409, 0.095022742770249, 0
2519, 0.29035781195976, 0.095030087293241, 0
2520, 0.26047904191617, 0.094814219139015, 0
2521, 0.34431183280868, 0.094814297901317, 0
2522, 0.34730547821908, 0.089757312573434, 0
2523, 0.34131880916362, 0.08977824569915, 0
2524, 0.35307676661943, 0.089775223327821, 0
2525, 0.35023536300538, 0.085137683827711, 0
2526, 0.33832440595698, 0.094839024161644, 0
2527, 0.33541409816926, 0.08976567445157, 0
2528, 0.32878944674628, 0.089193613558928, 0
2529, 0.33845291209849, 0.083841128497193, 0
2530, 0.35624283809492, 0.094868922342786, 0
2531, 0.35930925522711, 0.089186143303219, 0
2532, 0.32634800092451, 0.094810389081729, 0
2533, 0.79328165338505, 0.004895563913921, 0
2534, 0.17143413930517, 0.005421584858132, 0
2535, 0.29640720231924, 0.0051857763985749, 0
2536, 0.29940117319463, 0.010248179462898, 0
2537, 0.30538881128862, 0.010227583151105, 0
2538, 0.30838283690987, 0.0051617735422194, 0
2539, 0.31119871235045, 0.010240637571828, 0
2540, 0.30797088480799, 0.016018574555751, 0
2541, 0.31437053919289, 0.0051859665084717, 0
2542, 0.31760546387381, 0.010850962698824, 0
2543, 0.29355993985066, 0.010266159437919, 0
2544, 0.28705289616993, 0.01090136895605, 0
2545, 0.29677985389893, 0.01621826238482, 0
2546, 0.28443143586422, 0.0051863242922928, 0
2547, 0.6616783373446, 0.094818415397258, 0
2548, 0.66766297162898, 0.094820694038122, 0
2549, 0.67067087289439, 0.089886268948664, 0
2550, 0.20662009090395, 0.0050235339997629, 0
2551, 0.87125948164026, 0.095003937777172, 0
2552, 0.068886182013761, 0.0050403663275652, 0
2553, 0.062878629942726, 0.0051311809689227, 0
2554, 0.066021259319445, 0.0096859588401171, 0
2555, 0.059321451150296, 0.010819620279712, 0
2556, 0.32620550380252, 0.0051399551976938, 0
2557, 0.12275449101796, 0.0051857808609847, 0
2558, 0.11698227830611, 0.0051337945278068, 0
2559, 0.2607919984929, 0.0050050785972379, 0
2560, 0.2637586367771, 0.010158334133437, 0
2561, 0.2694355438785, 0.010413659340858, 0
2562, 0.27254347449844, 0.0052999343918846, 0
2563, 0.25482768396687, 0.0057607322542321, 0
2564, 0.84727287663392, 0.0049240080544701, 0
2565, 0.82339112467674, 0.094772601405594, 0
2566, 0.81455596170328, 0.08925208064922, 0
2567, 0.6857070193332, 0.094890780153903, 0
2568, 0.68881359288729, 0.090281690396755, 0
2569, 0.679692985815, 0.094961317644018, 0
2570, 0.15311817463215, 0.094883365445527, 0
2571, 0.72757780244516, 0.094838940674419, 0
2572, 0.73067055718385, 0.089480129692113, 0
2573, 0.72482084837594, 0.090411052599697, 0
2574, 0.64970866826265, 0.094809154787044, 0
2575, 0.64677008860971, 0.089536423639658, 0
2576, 0.65275118530566, 0.089569533897339, 0
2577, 0.64393292094827, 0.084029143811398, 0
2578, 0.65589098007741, 0.084328867420504, 0
2579, 0.24251497005988, 0.094814219139016, 0
2580, 0.24850297124503, 0.094814232283518, 0
2581, 0.2515409722739, 0.089622717931203, 0
2582, 0.152694607357, 0.0051857806199532, 0
2583, 0.1497005988024, 0.010371559027761, 0
2584, 0.1437125826161, 0.010371557238379, 0
2585, 0.15553350056802, 0.010484778750509, 0
2586, 0.15871175024046, 0.0053058358935293, 0
2587, 0.14071857098083, 0.0051857816357582, 0
2588, 0.13781464960551, 0.010457003956064, 0
2589, 0.13467166105856, 0.0053123356263192, 0
2590, 0.8413288560695, 0.09493440457765, 0
2591, 0.84454753107984, 0.090256106864286, 0
2592, 0.83533282455104, 0.094940153638111, 0
2593, 0.78142157440045, 0.095143504910897, 0
2594, 0.78348845573944, 0.090453445645861, 0
2595, 0.78908790675064, 0.089877347690324, 0
2596, 0.2724749787987, 0.094861192692538, 0
2597, 0.26954647640753, 0.089581388340666, 0
2598, 0.27617390910716, 0.089112519627902, 0
2599, 0.27190011653031, 0.084795625265082, 0
2600, 0.27086740588947, 0.079228120870908, 0
2601, 0.33838400553225, 0.0058345310677706, 0
2602, 0.20661404919957, 0.09503578171094, 0
2603, 0.69752193653805, 0.095203934108112, 0
2604, 0.70349381591389, 0.095328542601755, 0
2605, 0.24250225910394, 0.0049609569859194, 0
2606, 0.24528841658715, 0.010579732604799, 0
2607, 0.21856288182709, 0.0051272850559307, 0
2608, 0.22168275198472, 0.0096273940453461, 0
2609, 0.21493834676158, 0.010750771220119, 0
2610, 0.19401692859209, 0.0053714066041527, 0
2611, 0.092880819941177, 0.095045617697232, 0
2612, 0.089732445637573, 0.089554606749482, 0
2613, 0.31437120875341, 0.095079649384969, 0
2614, 0.31746362154792, 0.089561148958464, 0
2615, 0.22981650041606, 0.094987895915418, 0
2616, 0.86357387111891, 0.071168101074813, 0
2617, 0.18297720608779, 0.06508765918772, 0
2618, 0.87416920394278, 0.045864355213861, 0
2619, 0.87749872200376, 0.040913183251334, 0
2620, 0.86819236641225, 0.045506662908305, 0
2621, 0.8191520980564, 0.016610520121481, 0
2622, 0.85824415841312, 0.060444010988506, 0
2623, 0.87019691932094, 0.061190408697499, 0
2624, 0.8655954492482, 0.086555140199091, 0
2625, 0.1259387121353, 0.074090930376829, 0
2626, 0.83700273925547, 0.064311689406382, 0
2627, 0.84225398365701, 0.028268741424228, 0
2628, 0.85105796965989, 0.080729357259066, 0
2629, 0.85226780344996, 0.060070437186874, 0
2630, 0.83627857873905, 0.027895664393597, 0
2631, 0.82970306346623, 0.084591352935232, 0
2632, 0.18296647094389, 0.0351495993404, 0
2633, 0.30737656620017, 0.035121407772034, 0
2634, 0.82303271159365, 0.047851770760889, 0
2635, 0.8775511859639, 0.087212416531214, 0
2636, 0.82170220588205, 0.021830764521419, 0
2637, 0.83102658216409, 0.063938454169277, 0
2638, 0.81907445109794, 0.063192270874199, 0
2639, 0.8549326595545, 0.065432450914139, 0
2640, 0.83958951566434, 0.022906844593075, 0
2641, 0.84096179592731, 0.048971868876397, 0
2642, 0.12074755417359, 0.059122886706792, 0
2643, 0.81107999336765, 0.047105096030836, 0
2644, 0.83690675920258, 0.017533181266553, 0
2645, 0.87883813215652, 0.066925926919182, 0
2646, 0.8609090302434, 0.065805788725981, 0
2647, 0.80712168756993, 0.062446758421269, 0
2648, 0.12591472289753, 0.02619905820693, 0
2649, 0.13110981752908, 0.035168195200955, 0
2650, 0.84034289396697, 0.011788162658351, 0
2651, 0.86688539524675, 0.066179266849056, 0
2652, 0.83829661096243, 0.043609265975822, 0
2653, 0.1259321982356, 0.056127025675906, 0
2654, 0.79912722873457, 0.046359520507458, 0
2655, 0.87617329492322, 0.061563665745617, 0
2656, 0.8788204217324, 0.020417113028374, 0
2657, 0.13629930911801, 0.044147422736467, 0
2658, 0.88950639378597, 0.088206187060163, 0
2659, 0.13111899253874, 0.059119117080698, 0
2660, 0.15185533169645, 0.041147963740346, 0
2661, 0.14667501172326, 0.056119518776655, 0
2662, 0.13629448307861, 0.03217238752874, 0
2663, 0.79516903692303, 0.061699174002183, 0
2664, 0.14666213200863, 0.020191957085037, 0
2665, 0.15180728293512, 0.082950353142531, 0
2666, 0.20882828484987, 0.080042411315121, 0
2667, 0.14149692589916, 0.077079210481974, 0
2668, 0.12074972054522, 0.06511085117166, 0
2669, 0.24001887065639, 0.068059119126772, 0
2670, 0.16204809304982, 0.089467930853376, 0
2671, 0.7871746010033, 0.045612051572087, 0
2672, 0.21407339951235, 0.017175597751976, 0
2673, 0.20371045193244, 0.041129922991133, 0
2674, 0.1259365307114, 0.068102938389236, 0
2675, 0.88747936769695, 0.07266172664786, 0
2676, 0.13112333862057, 0.071095054319305, 0
2677, 0.12593435900533, 0.062114980474696, 0
2678, 0.12024804605279, 0.089573409729356, 0
2679, 0.19853041167552, 0.056100499974028, 0
2680, 0.13112553729227, 0.077083084990444, 0
2681, 0.18815531323096, 0.044129113629525, 0
2682, 0.1570462753745, 0.056115615414847, 0
2683, 0.89603912216974, 0.031775253141929, 0
2684, 0.74598685969398, 0.032647921088686, 0
2685, 0.11555412098247, 0.038166968734143, 0
2686, 0.18297462444704, 0.017211471865376, 0
2687, 0.88481460452038, 0.06729968395635, 0
2688, 0.16222663311113, 0.041144529578455, 0
2689, 0.12074098428827, 0.041159064864929, 0
2690, 0.25555704546048, 0.029141025342076, 0
2691, 0.62319977403699, 0.030151333333592, 0
2692, 0.1933494278214, 0.077053911004131, 0
2693, 0.13111256960958, 0.041155348283683, 0
2694, 0.91203116004792, 0.063802804664924, 0
2695, 0.18815093585253, 0.032153873205585, 0
2696, 0.73216032210363, 0.016103079219539, 0
2697, 0.39506944776746, 0.061848593709088, 0
2698, 0.78450962256917, 0.040251097103893, 0
2699, 0.12592550527742, 0.038163165901303, 0
2700, 0.19851780389363, 0.020174760935395, 0
2701, 0.79185756344169, 0.066686844703316, 0
2702, 0.18297516685984, 0.059099963830551, 0
2703, 0.16741010171808, 0.026178237479247, 0
2704, 0.7188853931246, 0.082557680360989, 0
2705, 0.22441690580572, 0.01768680444784, 0
2706, 0.884752409533, 0.020774341435225, 0
2707, 0.31773822531047, 0.059033917911912, 0
2708, 0.18816439934396, 0.080048803961967, 0
2709, 0.16223742469731, 0.071083745196754, 0
2710, 0.23491641928011, 0.083000239987972, 0
2711, 0.9100182824909, 0.048098609612222, 0
2712, 0.75995806229673, 0.049107328932642, 0
2713, 0.17260309550045, 0.017279732988535, 0
2714, 0.77126377479561, 0.06020493460143, 0
2715, 0.70359981518543, 0.086960375628935, 0
2716, 0.69881267855836, 0.019512675663905, 0
2717, 0.76197611650802, 0.064818347152878, 0
2718, 0.2866193059592, 0.017266636950684, 0
2719, 0.71012942877034, 0.030413665130323, 0
2720, 0.16742399206346, 0.074075380793867, 0
2721, 0.19841482649136, 0.014303527657097, 0
2722, 0.17778858221585, 0.0561079790098, 0
2723, 0.18787882973436, 0.085797715112397, 0
2724, 0.89943207331291, 0.073407760418629, 0
2725, 0.18296870280936, 0.041137162014863, 0
2726, 0.24519883670363, 0.017071610905517, 0
2727, 0.25039293857067, 0.080031334083121, 0
2728, 0.17260402523308, 0.059103666335201, 0
2729, 0.90201653195986, 0.032125855649641, 0
2730, 0.95711139678621, 0.06137425261914, 0
2731, 0.92398207491408, 0.064547118669845, 0
2732, 0.16741743098571, 0.056111716198427, 0
2733, 0.17778211221007, 0.038145224769938, 0
2734, 0.68720036948233, 0.019047505352842, 0
2735, 0.74404739100545, 0.063700060860142, 0
2736, 0.17259765808577, 0.041140842590193, 0
2737, 0.20890146688558, 0.056096433028607, 0
2738, 0.058590934627886, 0.077034340139277, 0
2739, 0.68825003902942, 0.044627970053434, 0
2740, 0.21927226472863, 0.056092217798642, 0
2741, 0.72410162620587, 0.046866801334294, 0
2742, 0.16223288928853, 0.059107428116818, 0
2743, 0.2140812328546, 0.041126444155461, 0
2744, 0.23522384179013, 0.088448889530455, 0
2745, 0.16741117059809, 0.038148968802545, 0
2746, 0.28167123318491, 0.079954226962529, 0
2747, 0.76060392351436, 0.038760541609168, 0
2748, 0.22964196920124, 0.056089394484751, 0
2749, 0.17261057251679, 0.07706718083363, 0
2750, 0.63193977520654, 0.083036594973145, 0
2751, 0.73605320474543, 0.04761340325118, 0
2752, 0.30220337798492, 0.062035986276004, 0
2753, 0.16223512977484, 0.065095474848873, 0
2754, 0.75462761051497, 0.038384507510409, 0
2755, 0.16740907456423, 0.032161391085501, 0
2756, 0.17259954787645, 0.023202675524662, 0
2757, 0.22445179042105, 0.041123013557869, 0
2758, 0.72611905181951, 0.06257999659759, 0
2759, 0.24001122525201, 0.05608510125352, 0
2760, 0.094817910094156, 0.056135855153635, 0
2761, 0.17261931828971, 0.083024626625031, 0
2762, 0.17240881820767, 0.088719246148968, 0
2763, 0.93189324982324, 0.034021093278077, 0
2764, 0.69624214745594, 0.060714567610383, 0
2765, 0.29689886708904, 0.082450534839661, 0
2766, 0.93794490667345, 0.080984655867196, 0
2767, 0.30739551732558, 0.076971592907912, 0
2768, 0.3125570748591, 0.044095462670546, 0
2769, 0.92389752054589, 0.018128082616021, 0
2770, 0.23482199475445, 0.041119265200719, 0
2771, 0.24519156470746, 0.04111555171267, 0
2772, 0.70819200396301, 0.061460064690195, 0
2773, 0.3280843078305, 0.041105817425252, 0
2774, 0.34360223750325, 0.061994089413785, 0
2775, 0.43119517426145, 0.076615572745632, 0
2776, 0.32291118900831, 0.056038702441921, 0
2777, 0.31784978774438, 0.017246656669461, 0
2778, 0.44837238633987, 0.079782001954673, 0
2779, 0.62989094905098, 0.066977144500519, 0
2780, 0.34824442773296, 0.010752039506802, 0
2781, 0.25038041438235, 0.056081299933428, 0
2782, 0.25555871711542, 0.041114374980259, 0
2783, 0.31255697489954, 0.032128279655971, 0
2784, 0.41525795504423, 0.032354142674753, 0
2785, 0.94382230313267, 0.034764254431931, 0
2786, 0.64048857166332, 0.041662319182066, 0
2787, 0.67831752308428, 0.059598401607577, 0
2788, 0.089674248410713, 0.083127509317414, 0
2789, 0.30220244954979, 0.056056083740281, 0
2790, 0.063755608848029, 0.06812947873783, 0
2791, 0.058578201167181, 0.065086078050748, 0
2792, 0.26074565274342, 0.056073597888803, 0
2793, 0.037957105808307, 0.053163071199453, 0
2794, 0.67630185052441, 0.043878471498413, 0
2795, 0.41043495444466, 0.064781797186397, 0
2796, 0.415147836636, 0.061787455821158, 0
2797, 0.33842850646489, 0.041107955436717, 0
2798, 0.72474654387438, 0.036513684432385, 0
2799, 0.32856607547559, 0.010702304401851, 0
2800, 0.43107540159395, 0.023397465099836, 0
2801, 0.2659278294657, 0.041110316228357, 0
2802, 0.058561014481147, 0.023327064856878, 0
2803, 0.70019879899732, 0.045373787538176, 0
2804, 0.93583533004983, 0.018905042944907, 0
2805, 0.33325772262225, 0.038122206117037, 0
2806, 0.92793855177685, 0.049216618447189, 0
2807, 0.92664645752678, 0.069905697436905, 0
2808, 0.074104199079649, 0.080090012245573, 0
2809, 0.71877033678279, 0.03614103736369, 0
2810, 0.27629158563508, 0.0411147490552, 0
2811, 0.068917962966508, 0.035240091574575, 0
2812, 0.30712429676203, 0.082908952602156, 0
2813, 0.35393375236775, 0.044092876853968, 0
2814, 0.35909497577611, 0.041121035946639, 0
2815, 0.37456043869026, 0.055989954610053, 0
2816, 0.95573511307406, 0.035488210434396, 0
2817, 0.068848770018348, 0.01781119551276, 0
2818, 0.3486166358083, 0.07660329366838, 0
2819, 0.022572869976497, 0.062071557226917, 0
2820, 0.42024687861112, 0.070625701244586, 0
2821, 0.92067182238186, 0.069534796967555, 0
2822, 0.62855117559891, 0.040898319401772, 0
2823, 0.66039893625703, 0.058483777218627, 0
2824, 0.048238972139773, 0.035244091797677, 0
2825, 0.37970739608558, 0.0411256101517, 0
2826, 0.027663548677826, 0.047222779252882, 0
2827, 0.26589848880219, 0.070976616567792, 0
2828, 0.34360234611409, 0.05602683653911, 0
2829, 0.35909958009018, 0.058994476354626, 0
2830, 0.29702311924769, 0.059047827743307, 0
2831, 0.038933258566415, 0.094820629388499, 0
2832, 0.69293132836223, 0.065703376264044, 0
2833, 0.36425114768963, 0.044103256637512, 0
2834, 0.60235050090068, 0.080562181937032, 0
2835, 0.93923149045523, 0.060311381281508, 0
2836, 0.36442396951775, 0.085663944304148, 0
2837, 0.95365982091113, 0.019915229676065, 0
2838, 0.99520775378101, 0.061748648666586, 0
2839, 0.0050942670810848, 0.026470588235294, 0
2840, 0.67363518326817, 0.038508896623315, 0
2841, 0.73068289096299, 0.08357424934774, 0
2842, 0.42111739163795, 0.011891675515579, 0
2843, 0.97682994302664, 0.031670492830738, 0
2844, 0.92003242033559, 0.079879851544528, 0
2845, 0.64249048084503, 0.057366227323854, 0
2846, 0.33842877032306, 0.035137388283614, 0
2847, 0.0049495466730991, 0.073549960023674, 0
2848, 0.06891703187933, 0.041206874643139, 0
2849, 0.30737688426223, 0.04110619248183, 0
2850, 0.56783481692046, 0.010875307855122, 0
2851, 0.29184220098382, 0.056058775331866, 0
2852, 0.60679662812061, 0.055060793512997, 0
2853, 0.053443846245147, 0.020313430160484, 0
2854, 0.94062659315794, 0.086035757474785, 0
2855, 0.073866888671291, 0.085888362177228, 0
2856, 0.3591075697935, 0.064959154321286, 0
2857, 0.043127678487641, 0.068015248658151, 0
2858, 0.037950234537615, 0.023431621304646, 0
2859, 0.42017325686311, 0.029436897679079, 0
2860, 0.0048757184438781, 0.014724549790093, 0
2861, 0.28665935011364, 0.059049609173489, 0
2862, 0.94189205238683, 0.065671258232067, 0
2863, 0.38979360167721, 0.082543772163241, 0
2864, 0.33326182749687, 0.026159989310408, 0
2865, 0.28147614000246, 0.056061690855889, 0
2866, 0.40051756518827, 0.07640455206956, 0
2867, 0.30219626458106, 0.038115337968788, 0
2868, 0.67500369365397, 0.064589211698311, 0
2869, 0.32292105840383, 0.073977810015602, 0
2870, 0.27629320105508, 0.059051795137021, 0
2871, 0.35910141989278, 0.029189976194155, 0
2872, 0.29702083967883, 0.041111979234458, 0
2873, 0.032753417855737, 0.079957575151506, 0
2874, 0.27111317341104, 0.056061596576894, 0
2875, 0.58679838086431, 0.084853521065646, 0
2876, 0.95646073110885, 0.07176206879144, 0
2877, 0.95976296948159, 0.066700289969337, 0
2878, 0.32811181278695, 0.082963433762845, 0
2879, 0.29182929420773, 0.038122539550982, 0
2880, 0.38997125648631, 0.041157383808995, 0
2881, 0.33843286913789, 0.05901274441977, 0
2882, 0.63917393742634, 0.062361825337455, 0
2883, 0.60534415286934, 0.029054426071297, 0
2884, 0.26593268142121, 0.059055186397894, 0
2885, 0.65241442921454, 0.042390311177712, 0
2886, 0.28665534680082, 0.041115707196167, 0
2887, 0.36415520376809, 0.020226253926349, 0
2888, 0.41034962960018, 0.016399288662345, 0
2889, 0.33325813521686, 0.056030867604012, 0
2890, 0.027484881859254, 0.017870345428296, 0
2891, 0.94770814009733, 0.019675754508011, 0
2892, 0.28146585372997, 0.038127565122433, 0
2893, 0.56614410335412, 0.094719105213869, 0
2894, 0.95838631035356, 0.040807438314023, 0
2895, 0.058567599717942, 0.017342043648724, 0
2896, 0.33325850328484, 0.032143491806242, 0
2897, 0.40019435249084, 0.041186560588832, 0
2898, 0.26593661278542, 0.065012135801863, 0
2899, 0.048268016214186, 0.065037706623881, 0
2900, 0.4150776303526, 0.038260232821607, 0
2901, 0.36425275646073, 0.038149458574358, 0
2902, 0.39508114368978, 0.055936436201568, 0
2903, 0.65708153150803, 0.063478690851347, 0
2904, 0.080895878447646, 0.094891520902247, 0
2905, 0.074086600964102, 0.038222476582952, 0
2906, 0.41036056616741, 0.052957311502947, 0
2907, 0.32808358559811, 0.059017501268712, 0
2908, 0.80970737901799, 0.021058279233748, 0
2909, 0.97796955351866, 0.010989285619242, 0
2910, 0.33843323438275, 0.023184890928073, 0
2911, 0.27628942659516, 0.035137775707293, 0
2912, 0.82647614457443, 0.089622270098852, 0
2913, 0.27628392764894, 0.029155668094604, 0
2914, 0.41031442749708, 0.058858661038548, 0
2915, 0.5989130353018, 0.039124303431526, 0
2916, 0.32291280458585, 0.062011202457041, 0
2917, 0.07926551811549, 0.041202048558489, 0
2918, 0.97816470950563, 0.057480496317568, 0
2919, 0.27110077682181, 0.026161120792877, 0
2920, 0.32809255465246, 0.07697131455188, 0
2921, 0.271105173811, 0.02018517467213, 0
2922, 0.96506937816382, 0.07735998914485, 0
2923, 0.32291541858304, 0.067993885887453, 0
2924, 0.089620302320548, 0.029241613974717, 0
2925, 0.35909622403522, 0.035155644261088, 0
2926, 0.084418950862726, 0.020261688388451, 0
2927, 0.084444441544235, 0.038212530415918, 0
2928, 0.33843525868747, 0.017290912830046, 0
2929, 0.61864533290067, 0.055860935594575, 0
2930, 0.95244219057082, 0.040433305735523, 0
2931, 0.094819338711602, 0.014255180924059, 0
2932, 0.36423833300815, 0.026213494053167, 0
2933, 0.99144460560077, 0.084494593111195, 0
2934, 0.38995144116723, 0.05889772214735, 0
2935, 0.44838107019973, 0.020250578263034, 0
2936, 0.089626000633125, 0.035209491359398, 0
2937, 0.19484771707079, 0.094965178196365, 0
2938, 0.65875054247808, 0.089630290629533, 0
2939, 0.39514428530761, 0.026268467400618, 0
2940, 0.94648522606591, 0.040062396448947, 0
2941, 0.36942075551952, 0.070925696716407, 0
2942, 0.058580523671024, 0.059122831309744, 0
2943, 0.38481882829003, 0.055940149408561, 0
2944, 0.089638932897754, 0.017115591938405, 0
2945, 0.39509252589504, 0.038227662254752, 0
2946, 0.37456231138283, 0.073834418528593, 0
2947, 0.94052238954414, 0.039691001607465, 0
2948, 0.61069692508104, 0.039795100635199, 0
2949, 0.37997795483233, 0.083789490194312, 0
2950, 0.59492721623959, 0.054494877695173, 0
2951, 0.40029981905089, 0.017317073062669, 0
2952, 0.93455659786386, 0.039317615715682, 0
2953, 0.33842833418782, 0.011864564261119, 0
2954, 0.1000483701127, 0.089014430678701, 0
2955, 0.053431183154815, 0.068044425452332, 0
2956, 0.9285892339178, 0.038942832018981, 0
2957, 0.66469790015835, 0.089739190977173, 0
2958, 0.022494833554709, 0.038343423336684, 0
2959, 0.058589692815578, 0.071067353739523, 0
2960, 0.92260574381095, 0.038563162209569, 0
2961, 0.91995734202001, 0.033233848019399, 0
2962, 0.85751196294356, 0.024079728952612, 0
2963, 0.86351590077008, 0.024513968924058, 0
2964, 0.85354734043275, 0.03938957734987, 0
2965, 0.8562165450746, 0.044751743145557, 0
2966, 0.8808389265761, 0.035999064473852, 0
2967, 0.88348238515786, 0.041340081085731, 0
2968, 0.35343091207025, 0.080240977435196, 0
2969, 0.37967300914516, 0.058887459407416, 0
2970, 0.053418602007251, 0.080023603498155, 0
2971, 0.91398773395022, 0.032838581584409, 0
2972, 0.91069175821223, 0.037800993406691, 0
2973, 0.55965697144218, 0.0052052990591878, 0
2974, 0.90468293234219, 0.037451632934845, 0
2975, 0.8715240751134, 0.040546918393128, 0
2976, 0.89870839303959, 0.037095901613415, 0
2977, 0.89209791266234, 0.047025675226252, 0
2978, 0.8655148130632, 0.040179582652539, 0
2979, 0.88612527826896, 0.046654579113107, 0
2980, 0.87483252195778, 0.035608827705626, 0
2981, 0.89540566298, 0.042061355243002, 0
2982, 0.52080984360392, 0.089723863843115, 0
2983, 0.6378648491464, 0.094662196132029, 0
2984, 0.15110499646146, 0.089340424636785, 0
2985, 0.14110166336907, 0.094224495499528, 0
2986, 0.37452375320119, 0.061891980425552, 0
2987, 0.36937113611172, 0.064848305922181, 0
2988, 0.96175995117704, 0.082659678967433, 0
2989, 0.39511247701477, 0.032268850385351, 0
2990, 0.11049023306522, 0.094664458515713, 0
2991, 0.068895372647291, 0.094281171153108, 0
2992, 0.40024848541831, 0.023363934056009, 0
2993, 0.98904086586392, 0.021975731423467, 0
2994, 0.47042891262219, 0.0051193796073373, 0
2995, 0.47053859641893, 0.095029623365145, 0
2996, 0.39849913917015, 0.085024329911846, 0
2997, 0.37028550941125, 0.010941300642965, 0
2998, 0.17767721197628, 0.014283178178243, 0
2999, 0.37974570636257, 0.076929834084088, 0
3000, 0.17234381369761, 0.011512328796675, 0
3001, 0.011997423817355, 0.079980479423568, 0
3002, 0.90152503189507, 0.088428003945072, 0
3003, 0.99521549767949, 0.014867783699477, 0
3004, 0.77589996146606, 0.015001903151723, 0
3005, 0.54844463685461, 0.019650865617204, 0
3006, 0.98593481953672, 0.027064639113134, 0
3007, 0.98916635341352, 0.068629064765503, 0
3008, 0.72440082279343, 0.010245145945318, 0
3009, 0.88611173781675, 0.010231891327975, 0
3010, 0.73660334883696, 0.090571676276905, 0
3011, 0.83246922455953, 0.08982210908267, 0
3012, 0.57152929017657, 0.089108071638693, 0
3013, 0.18282662163559, 0.09492500751533, 0
3014, 0.97334742278272, 0.0050860790881915, 0
3015, 0.58129453567459, 0.027978866770259, 0
3016, 0.55011467872877, 0.090032489458947, 0
3017, 0.6678987909339, 0.084773790144188, 0
3018, 0.99534407047741, 0.055831337809138, 0
3019, 0.5559297556108, 0.010486220746105, 0
3020, 0.52055762428539, 0.010410363382618, 0
3021, 0.59929983110401, 0.0096280626002919, 0
3022, 0.64121951306267, 0.010697021108613, 0
3023, 0.64097811279385, 0.08933119822728, 0
3024, 0.49890550769033, 0.085692236194697, 0
3025, 0.0044301527527164, 0.0090395126666025, 0
3026, 0.9950604990117, 0.0090875456283006, 0
3027, 0.90723394104924, 0.095824612303244, 0
3028, 0.51457058570763, 0.090063607708015, 0
3029, 0.49077696893573, 0.0097403255465405, 0
3030, 0.67384203290825, 0.084999269832619, 0
3031, 0.72041648272545, 0.015503856673296, 0
3032, 0.88234509727841, 0.015407788972909, 0
3033, 0.8383233532984, 0.090023556229176, 0
3034, 0.49082693879623, 0.090420051533974, 0
3035, 0.74283757457415, 0.08333988147748, 0
3036, 0.57782134968125, 0.095881632607772, 0
3037, 0.51469343824271, 0.010116531705753, 0
3038, 0.96541478810815, 0.010212368535251, 0
3039, 0.75614333082153, 0.018223424432684, 0
3040, 0.45125837325261, 0.011116716307783, 0
3041, 0.63273329927601, 0.015535871816917, 0
3042, 0.84810000761866, 0.08554450930955, 0
3043, 0.66836587934864, 0.017819799992388, 0
3044, 0.45123015344761, 0.088772704951766, 0
3045, 0.91368964923493, 0.089384726910765, 0
3046, 0.84175689632806, 0.085184270124949, 0
3047, 0.40555467280258, 0.079193368553659, 0
3048, 0.87391566505861, 0.0099468819658286, 0
3049, 0.67680896100211, 0.08997268868143, 0
3050, 0.71197970932602, 0.010239048730461, 0
3051, 0.68275939830073, 0.090090236478128, 0
3052, 0.49548300841808, 0.020338486303356, 0
3053, 0.032876713802297, 0.014737315155241, 0
3054, 0.50877706276104, 0.009887568182964, 0
3055, 0.74833465355225, 0.090809165244334, 0
3056, 0.25715411356879, 0.08990209464896, 0
3057, 0.58362128216885, 0.088828416749921, 0
3058, 0.99008792309526, 0.047842030791202, 0
3059, 0.50576773103848, 0.095398156490349, 0
3060, 0.79296523363269, 0.094586999287141, 0
3061, 0.37476019832027, 0.02070150617442, 0
3062, 0.96122767049753, 0.0046326245509359, 0
3063, 0.080510433130965, 0.0048637357823891, 0
3064, 0.55021709733718, 0.0098180174835458, 0
3065, 0.49547248558111, 0.079637947327249, 0
3066, 0.55399315923525, 0.079062072673024, 0
3067, 0.41257887930719, 0.010025184448976, 0
3068, 0.62648259453488, 0.015079700660799, 0
3069, 0.85056595718889, 0.09056921252445, 0
3070, 0.44215645039681, 0.077197617612919, 0
3071, 0.27145935666419, 0.073402327976881, 0
3072, 0.26017742971492, 0.014339714049061, 0
3073, 0.21359014443148, 0.082963989596251, 0
3074, 0.14669322815697, 0.014753048949672, 0
3075, 0.30234472962741, 0.014577446099573, 0
3076, 0.26557800622485, 0.076956337252606, 0
3077, 0.44215144757015, 0.022844275158645, 0
3078, 0.8138581649536, 0.016280983195628, 0
3079, 0.79613767431797, 0.0093767697778628, 0
3080, 0.91994821773557, 0.089594970777274, 0
3081, 0.47619543306769, 0.0045929234977303, 0
3082, 0.47620991057806, 0.09542646779872, 0
3083, 0.34454851785476, 0.085059605439438, 0
3084, 0.03295049722292, 0.085178223876698, 0
3085, 0.86809357283581, 0.0096731382915399, 0
3086, 0.50270949030057, 0.0098260421627183, 0
3087, 0.79044327763107, 0.0098028704001961, 0
3088, 0.37793710517154, 0.090031231117045, 0
3089, 0.70817118525211, 0.015371562511007, 0
3090, 0.064015267473696, 0.014900470643225, 0
3091, 0.56867028217872, 0.025788211151946, 0
3092, 0.59032960457751, 0.09535561221874, 0
3093, 0.75560180941399, 0.084712764894896, 0
3094, 0.68600542420289, 0.085483321648792, 0
3095, 0.80535872261551, 0.0044455689827394, 0
3096, 0.30160404315257, 0.085330237036843, 0
3097, 0.26379613971257, 0.089883181330328, 0
3098, 0.40489940121036, 0.01518365813232, 0
3099, 0.21958911696097, 0.014786328957034, 0
3100, 0.07185628742515, 0.009535358779125, 0
3101, 0.3692689730376, 0.017366842597214, 0
3102, 0.85930566202451, 0.095346921464565, 0
3103, 0.49664847613656, 0.0098945573147929, 0
3104, 0.21939761599803, 0.07962399828592, 0
3105, 0.95527133602611, 0.0044521830524461, 0
3106, 0.48508081226356, 0.090608932168712, 0
3107, 0.69200934946074, 0.085912254010493, 0
3108, 0.39168649460336, 0.0048079350780794, 0
3109, 0.3985005464012, 0.0048898192461561, 0
3110, 0.48504353387891, 0.009398332143791, 0
3111, 0.02398492921188, 0.009553247080708, 0
3112, 0.62316553212041, 0.010074964067285, 0
3113, 0.64446805459382, 0.016033786000745, 0
3114, 0.38551992749644, 0.015171056647681, 0
3115, 0.8534066588034, 0.095309725432097, 0
3116, 0.3853200156576, 0.08486370337284, 0
3117, 0.836580220085, 0.0078123807201324, 0
3118, 0.22754491017964, 0.0094242110515055, 0
3119, 0.33280555705709, 0.085138771920643, 0
3120, 0.92539569037465, 0.089355604232462, 0
3121, 0.12221632204117, 0.095266628853728, 0
3122, 0.86212954212758, 0.0094745723571189, 0
3123, 0.78549930962562, 0.02020308133575, 0
3124, 0.012444859246318, 0.0096081154177548, 0
3125, 0.70216623704406, 0.015209996691233, 0
3126, 0.27179634062562, 0.015052611890723, 0
3127, 0.041776061488668, 0.009564481690854, 0
3128, 0.49994910038135, 0.095678287592263, 0
3129, 0.2912989625688, 0.015049013709128, 0
3130, 0.59608220398158, 0.095627889820009, 0
3131, 0.76089552663613, 0.084219299500698, 0
3132, 0.13549867846716, 0.015114305038541, 0
3133, 0.22663893727471, 0.090151467732304, 0
3134, 0.55211227140806, 0.084650310740925, 0
3135, 0.27710366788956, 0.082897523071636, 0
3136, 0.15783386097008, 0.015104378316352, 0
3137, 0.021943470578423, 0.084923676324522, 0
3138, 0.053768924316449, 0.0091796940776331, 0
3139, 0.4254500973744, 0.009525384696295, 0
3140, 0.43677531926624, 0.0095533384854593, 0
3141, 0.6149084720009, 0.014983300562931, 0
3142, 0.43691155212347, 0.0905500802666, 0
3143, 0.36516890904371, 0.0092333470030313, 0
3144, 0.56849100431455, 0.073834659821684, 0
3145, 0.2934130907359, 0.090764030233206, 0
3146, 0.129446559417, 0.095333037576588, 0
3147, 0.0041093573556667, 0.054800725778551, 0
3148, 0.78174945859058, 0.014860383311926, 0
3149, 0.86233745043754, 0.090775734367309, 0
3150, 0.087571472620704, 0.004683271762523, 0
3151, 0.69458081313462, 0.090635764732389, 0
3152, 0.94481962900235, 0.015131110157193, 0
3153, 0.20946800734139, 0.0091717452965026, 0
3154, 0.42555626163464, 0.090474611446999, 0
3155, 0.93204115400825, 0.095477969807031, 0
3156, 0.12577212481646, 0.0092564590679933, 0
3157, 0.35336784192615, 0.0092513729402674, 0
3158, 0.32335329341317, 0.009200041305191, 0
3159, 0.16762248752057, 0.0093537298470498, 0
3160, 0.04201517411412, 0.090840064108023, 0
3161, 0.0039972113881208, 0.085086624762779, 0
3162, 0.23966691156111, 0.0091306411802445, 0
3163, 0.28143691122032, 0.0091927080739244, 0
3164, 0.31167189787203, 0.091003088350221, 0
3165, 0.0041717692947191, 0.03708298525195, 0
3166, 0.69608631067709, 0.015138073056259, 0
3167, 0.24978564297309, 0.084963262947908, 0
3168, 0.7665145722398, 0.091088772531929, 0
3169, 0.31330414076986, 0.014941037149267, 0
3170, 0.99611877650831, 0.038235294117647, 0
3171, 0.32321816373608, 0.090923229621958, 0
3172, 0.85608631081552, 0.0092883489197227, 0
3173, 0.19791900591834, 0.009314534792665, 0
3174, 0.095425081791803, 0.0093649510465591, 0
3175, 0.28152408087007, 0.090906789017254, 0
3176, 0.60857371444391, 0.01438023108984, 0
3177, 0.20935700198862, 0.090910789884695, 0
3178, 0.23961053592712, 0.090762632596658, 0
3179, 0.54555328561779, 0.090597648242128, 0
3180, 0.083968513898839, 0.090962816657555, 0
3181, 0.36486430683422, 0.090609151453953, 0
3182, 0.053833311243081, 0.090952099736634, 0
3183, 0.16767218463245, 0.090844615847747, 0
3184, 0.77361414525406, 0.019976255033134, 0
3185, 0.49652920772357, 0.090506920405079, 0
3186, 0.47975419575709, 0.0093404372260794, 0
3187, 0.47978896524542, 0.09066042606764, 0
3188, 0.8683860172058, 0.090919042751318, 0
3189, 0.25103937007908, 0.009345159053411, 0
3190, 0.70053321626931, 0.090959885703034, 0
3191, 0.60484615581769, 0.084787021420425, 0
3192, 0.43602364689206, 0.07445029753266, 0
3193, 0.41645693638275, 0.085155718147399, 0
3194, 0.41927716375932, 0.041215447999303, 0
3195, 0.0040688492224093, 0.045337427946714, 0
3196, 0.71986687176091, 0.090626180874174, 0
3197, 0.93735101451514, 0.096364475369385, 0
3198, 0.93893105915193, 0.015008701776294, 0
3199, 0.58921418729139, 0.064678335115416, 0
3200, 0.19785169350454, 0.090829649552334, 0
3201, 0.4192898861376, 0.058728365379017, 0
3202, 0.095495629422582, 0.0908576741463, 0
3203, 0.69037620126235, 0.014771113418134, 0
3204, 0.0041189602914439, 0.063005447570763, 0
3205, 0.44610778443114, 0.0037811802827938, 0
3206, 0.43599593970994, 0.025586557415983, 0
3207, 0.17694149049416, 0.0037845053504374, 0
3208, 0.99626302901864, 0.085102496215963, 0
3209, 0.54510714721601, 0.0090134558961777, 0
3210, 0.77274521385005, 0.084782322545369, 0
3211, 0.44610778443114, 0.096265677789301, 0
3212, 0.43080997748403, 0.071975887079892, 0
3213, 0.99633155281563, 0.026470588235294, 0
3214, 0.85007638369021, 0.009086226664945, 0
3215, 0.11479933797354, 0.0095170006831682, 0
3216, 0.35501299822565, 0.085258398465747, 0
3217, 0.15630152596145, 0.090790785176481, 0
3218, 0.60521011631678, 0.0096832075321735, 0
3219, 0.58515976375265, 0.032033056562863, 0
3220, 0.4308109551961, 0.028069146295346, 0
3221, 0.57691813358096, 0.07483067113459, 0
3222, 0.87437526773047, 0.091086361306511, 0
3223, 0.99119403079195, 0.017420565088817, 0
3224, 0.13704034165826, 0.09072175177725, 0
3225, 0.70651378723455, 0.091130687055954, 0
3226, 0.76769258643153, 0.019640421502323, 0
3227, 0.33413928224502, 0.0096048453574993, 0
3228, 0.0086072954053962, 0.035288537118871, 0
3229, 0.94319610594518, 0.090083462329871, 0
3230, 0.56068028938606, 0.08770103000496, 0
3231, 0.99559898983391, 0.095626549922785, 0
3232, 0.004401010166087, 0.0043734500772138, 0
3233, 0.004401010166087, 0.095626549922786, 0
3234, 0.99572271642694, 0.0042787662705904, 0
3235, 0.68530050619685, 0.014217324726299, 0
3236, 0.9911496459827, 0.06431051284831, 0
3237, 0.93296299054255, 0.014836542406658, 0
3238, 0.6000136612478, 0.090686526263137, 0
3239, 0.80155502211659, 0.0092987392303375, 0
3240, 0.34266656940911, 0.0096224711272142, 0
3241, 0.58369206355707, 0.052731136860532, 0
3242, 0.10481164882794, 0.0036529518376033, 0
3243, 0.0084696346054545, 0.047245992458697, 0
3244, 0.18862275449102, 0.0035689188058208, 0
3245, 0.0086011502059689, 0.053087591019496, 0
3246, 0.45515263024942, 0.0087525626564212, 0
3247, 0.0086543808271308, 0.029374485825617, 0
3248, 0.81719872159911, 0.012391091321093, 0
3249, 0.114751978322, 0.090636041313702, 0
3250, 0.39378604951946, 0.085218032878574, 0
3251, 0.45138115298808, 0.015801781764381, 0
3252, 0.77829429609331, 0.091424552281148, 0
3253, 0.0084585611138559, 0.064896457625741, 0
3254, 0.0086587176003086, 0.023494699104744, 0
3255, 0.84449563940954, 0.0087570489222186, 0
3256, 0.59703704036702, 0.014413140498551, 0
3257, 0.013516935705487, 0.085335685744143, 0
3258, 0.45108099058765, 0.083918860042907, 0
3259, 0.45572289927723, 0.090604787235277, 0
3260, 0.0086095114812044, 0.017594483639475, 0
3261, 0.61456295393324, 0.080113138099436, 0
3262, 0.17682923529386, 0.096381894569221, 0
3263, 0.48274402188562, 0.086797486226963, 0
3264, 0.99655757747925, 0.073529411764706, 0
3265, 0.064604487924087, 0.090570793163318, 0
3266, 0.88032539906171, 0.091290496036959, 0
3267, 0.008555835130039, 0.070648026811417, 0
3268, 0.75962243272353, 0.01498971728087, 0
3269, 0.71209106855902, 0.091151038262964, 0
3270, 0.008582004200859, 0.076138857336451, 0
3271, 0.76469287007376, 0.014753752962571, 0
3272, 0.073241761325418, 0.090545777626993, 0
3273, 0.48269267015081, 0.013170645140458, 0
3274, 0.67942745299302, 0.014363504600842, 0
3275, 0.42427117555782, 0.032048315408191, 0
3276, 0.42428745754391, 0.067955273792225, 0
3277, 0.82794065190606, 0.0043545143552017, 0
3278, 0.10483710903621, 0.096452153052618, 0
3279, 0.94893741089963, 0.096358334698673, 0
3280, 0.18728001692217, 0.09048624472714, 0
3281, 0.92698019278415, 0.014662246777927, 0
3282, 0.40082962160338, 0.08104333085671, 0
3283, 0.41929519891934, 0.03519767955463, 0
3284, 0.5634530652316, 0.024668603318774, 0
3285, 0.8360635803952, 0.003925129930078, 0
3286, 0.58048547322437, 0.065759878976113, 0
3287, 0.14575869858097, 0.090439152618921, 0
3288, 0.41923053548344, 0.064827347745518, 0
3289, 0.7850029893465, 0.085534552053685, 0
3290, 0.99175895560376, 0.053081576947525, 0
3291, 0.60877852401252, 0.085817068484637, 0
3292, 0.62009474185115, 0.080029319990588, 0
3293, 0.88633798547143, 0.091507312437298, 0
3294, 0.59115616573563, 0.013647477817453, 0
3295, 0.5375468729737, 0.090356426452742, 0
3296, 0.79763480976445, 0.022229979187311, 0
3297, 0.0083612405391888, 0.011806246680225, 0
3298, 0.676866584279, 0.018731814787793, 0
3299, 0.72173984261293, 0.086523543029366, 0
3300, 0.37312023586715, 0.090642667413497, 0
3301, 0.75449104295302, 0.0083968340954733, 0
3302, 0.027351921740473, 0.013348527195942, 0
3303, 0.41704614837767, 0.0094704226271859, 0
3304, 0.92140873691628, 0.014470126785994, 0
3305, 0.58858280754589, 0.039372845183207, 0
3306, 0.57668719234301, 0.031146901995832, 0
3307, 0.81737439288524, 0.0033345224107689, 0
3308, 0.79842391841543, 0.013150721016939, 0
3309, 0.06909285845343, 0.01318312167099, 0
3310, 0.58891072281429, 0.0093652416685015, 0
3311, 0.79058358413231, 0.085372485343808, 0
3312, 0.89221556886228, 0.091717156398015, 0
3313, 0.22476991873778, 0.013078553706617, 0
3314, 0.66766500682605, 0.013452328839153, 0
3315, 0.48332379799491, 0.077791746328871, 0
3316, 0.41743581972689, 0.090429279111869, 0
3317, 0.72728575116792, 0.086589666611073, 0
3318, 0.34791114996936, 0.081224358458457, 0
3319, 0.29630351342644, 0.086998072905894, 0
3320, 0.23136242814959, 0.090732364974161, 0
3321, 0.25915183928741, 0.00933839253317, 0
3322, 0.48331261128336, 0.022232040942276, 0
3323, 0.58740104838681, 0.059425454176201, 0
3324, 0.45923333966166, 0.0091246391635476, 0
3325, 0.038528637151446, 0.013305285545444, 0
******* E L E M E N T S *************
*ELEMENT, type=T3D2, ELSET=Line5
6, 1, 6
7, 6, 7
8, 7, 8
9, 8, 9
10, 9, 10
11, 10, 11
12, 11, 12
13, 12, 13
14, 13, 14
15, 14, 15
16, 15, 16
17, 16, 17
18, 17, 18
19, 18, 19
20, 19, 20
21, 20, 21
22, 21, 22
23, 22, 23
24, 23, 24
25, 24, 25
26, 25, 26
27, 26, 27
28, 27, 28
29, 28, 29
30, 29, 30
31, 30, 31
32, 31, 32
33, 32, 33
34, 33, 34
35, 34, 35
36, 35, 36
37, 36, 37
38, 37, 38
39, 38, 39
40, 39, 40
41, 40, 41
42, 41, 42
43, 42, 43
44, 43, 44
45, 44, 45
46, 45, 46
47, 46, 47
48, 47, 48
49, 48, 49
50, 49, 50
51, 50, 51
52, 51, 52
53, 52, 53
54, 53, 54
55, 54, 55
56, 55, 56
57, 56, 57
58, 57, 58
59, 58, 59
60, 59, 60
61, 60, 61
62, 61, 62
63, 62, 63
64, 63, 1
*ELEMENT, type=T3D2, ELSET=Line6
65, 2, 64
66, 64, 65
67, 65, 66
68, 66, 67
69, 67, 68
70, 68, 69
71, 69, 70
72, 70, 71
73, 71, 72
74, 72, 73
75, 73, 74
76, 74, 75
77, 75, 76
78, 76, 77
79, 77, 78
80, 78, 79
81, 79, 80
82, 80, 81
83, 81, 82
84, 82, 83
85, 83, 84
86, 84, 85
87, 85, 86
88, 86, 87
89, 87, 88
90, 88, 89
91, 89, 90
92, 90, 91
93, 91, 92
94, 92, 93
95, 93, 94
96, 94, 95
97, 95, 96
98, 96, 97
99, 97, 98
100, 98, 99
101, 99, 100
102, 100, 101
103, 101, 102
104, 102, 103
105, 103, 104
106, 104, 105
107, 105, 106
108, 106, 107
109, 107, 108
110, 108, 109
111, 109, 110
112, 110, 111
113, 111, 112
114, 112, 113
115, 113, 114
116, 114, 115
117, 115, 116
118, 116, 117
119, 117, 118
120, 118, 119
121, 119, 120
122, 120, 121
123, 121, 122
124, 122, 123
125, 123, 124
126, 124, 125
127, 125, 126
128, 126, 127
129, 127, 128
130, 128, 129
131, 129, 130
132, 130, 131
133, 131, 132
134, 132, 133
135, 133, 134
136, 134, 135
137, 135, 136
138, 136, 137
139, 137, 138
140, 138, 139
141, 139, 140
142, 140, 141
143, 141, 142
144, 142, 143
145, 143, 144
146, 144, 145
147, 145, 146
148, 146, 147
149, 147, 148
150, 148, 149
151, 149, 150
152, 150, 151
153, 151, 152
154, 152, 153
155, 153, 154
156, 154, 155
157, 155, 156
158, 156, 157
159, 157, 158
160, 158, 159
161, 159, 160
162, 160, 161
163, 161, 162
164, 162, 163
165, 163, 164
166, 164, 165
167, 165, 166
168, 166, 167
169, 167, 168
170, 168, 169
171, 169, 170
172, 170, 171
173, 171, 172
174, 172, 173
175, 173, 174
176, 174, 175
177, 175, 176
178, 176, 177
179, 177, 178
180, 178, 179
181, 179, 180
182, 180, 181
183, 181, 182
184, 182, 183
185, 183, 184
186, 184, 185
187, 185, 186
188, 186, 187
189, 187, 188
190, 188, 189
191, 189, 190
192, 190, 191
193, 191, 192
194, 192, 193
195, 193, 194
196, 194, 195
197, 195, 196
198, 196, 197
199, 197, 198
200, 198, 199
201, 199, 200
202, 200, 201
203, 201, 202
204, 202, 203
205, 203, 204
206, 204, 205
207, 205, 206
208, 206, 207
209, 207, 208
210, 208, 209
211, 209, 210
212, 210, 211
213, 211, 212
214, 212, 213
215, 213, 214
216, 214, 215
217, 215, 216
218, 216, 217
219, 217, 218
220, 218, 219
221, 219, 220
222, 220, 221
223, 221, 222
224, 222, 223
225, 223, 224
226, 224, 225
227, 225, 226
228, 226, 227
229, 227, 228
230, 228, 229
231, 229, 3
*ELEMENT, type=T3D2, ELSET=Line7
232, 4, 230
233, 230, 231
234, 231, 232
235, 232, 233
236, 233, 234
237, 234, 235
238, 235, 236
239, 236, 237
240, 237, 238
241, 238, 239
242, 239, 240
243, 240, 241
244, 241, 242
245, 242, 243
246, 243, 244
247, 244, 245
248, 245, 2
*ELEMENT, type=T3D2, ELSET=Line8
249, 3, 246
250, 246, 247
251, 247, 248
252, 248, 249
253, 249, 250
254, 250, 251
255, 251, 252
256, 252, 253
257, 253, 254
258, 254, 255
259, 255, 256
260, 256, 257
261, 257, 258
262, 258, 259
263, 259, 260
264, 260, 261
265, 261, 5
*ELEMENT, type=T3D2, ELSET=Line9
266, 5, 262
267, 262, 263
268, 263, 264
269, 264, 265
270, 265, 266
271, 266, 267
272, 267, 268
273, 268, 269
274, 269, 270
275, 270, 271
276, 271, 272
277, 272, 273
278, 273, 274
279, 274, 275
280, 275, 276
281, 276, 277
282, 277, 278
283, 278, 279
284, 279, 280
285, 280, 281
286, 281, 282
287, 282, 283
288, 283, 284
289, 284, 285
290, 285, 286
291, 286, 287
292, 287, 288
293, 288, 289
294, 289, 290
295, 290, 291
296, 291, 292
297, 292, 293
298, 293, 294
299, 294, 295
300, 295, 296
301, 296, 297
302, 297, 298
303, 298, 299
304, 299, 300
305, 300, 301
306, 301, 302
307, 302, 303
308, 303, 304
309, 304, 305
310, 305, 306
311, 306, 307
312, 307, 308
313, 308, 309
314, 309, 310
315, 310, 311
316, 311, 312
317, 312, 313
318, 313, 314
319, 314, 315
320, 315, 316
321, 316, 317
322, 317, 318
323, 318, 319
324, 319, 320
325, 320, 321
326, 321, 322
327, 322, 323
328, 323, 324
329, 324, 325
330, 325, 326
331, 326, 327
332, 327, 328
333, 328, 329
334, 329, 330
335, 330, 331
336, 331, 332
337, 332, 333
338, 333, 334
339, 334, 335
340, 335, 336
341, 336, 337
342, 337, 338
343, 338, 339
344, 339, 340
345, 340, 341
346, 341, 342
347, 342, 343
348, 343, 344
349, 344, 345
350, 345, 346
351, 346, 347
352, 347, 348
353, 348, 349
354, 349, 350
355, 350, 351
356, 351, 352
357, 352, 353
358, 353, 354
359, 354, 355
360, 355, 356
361, 356, 357
362, 357, 358
363, 358, 359
364, 359, 360
365, 360, 361
366, 361, 362
367, 362, 363
368, 363, 364
369, 364, 365
370, 365, 366
371, 366, 367
372, 367, 368
373, 368, 369
374, 369, 370
375, 370, 371
376, 371, 372
377, 372, 373
378, 373, 374
379, 374, 375
380, 375, 376
381, 376, 377
382, 377, 378
383, 378, 379
384, 379, 380
385, 380, 381
386, 381, 382
387, 382, 383
388, 383, 384
389, 384, 385
390, 385, 386
391, 386, 387
392, 387, 388
393, 388, 389
394, 389, 390
395, 390, 391
396, 391, 392
397, 392, 393
398, 393, 394
399, 394, 395
400, 395, 396
401, 396, 397
402, 397, 398
403, 398, 399
404, 399, 400
405, 400, 401
406, 401, 402
407, 402, 403
408, 403, 404
409, 404, 405
410, 405, 406
411, 406, 407
412, 407, 408
413, 408, 409
414, 409, 410
415, 410, 411
416, 411, 412
417, 412, 413
418, 413, 414
419, 414, 415
420, 415, 416
421, 416, 417
422, 417, 418
423, 418, 419
424, 419, 420
425, 420, 421
426, 421, 422
427, 422, 423
428, 423, 424
429, 424, 425
430, 425, 426
431, 426, 427
432, 427, 4
*ELEMENT, type=CPS3, ELSET=Surface1
433, 1906, 2051, 1349
434, 1978, 2040, 573
435, 1724, 1931, 1913
436, 1914, 2182, 476
437, 2251, 3259, 1966
438, 1067, 1068, 1
439, 1863, 2051, 1906
440, 2572, 2841, 1703
441, 1703, 3010, 2572
442, 517, 3230, 1858
443, 1858, 2893, 517
444, 1915, 2182, 1914
445, 1001, 2540, 924
446, 1501, 3306, 1890
447, 1662, 2204, 2060
448, 1890, 3306, 1883
449, 2171, 3067, 2888
450, 561, 2484, 1856
451, 1856, 3002, 561
452, 473, 3277, 1860
453, 267, 1973, 266
454, 1855, 2988, 1974
455, 1696, 3060, 2595
456, 2997, 3101, 1911
457, 1860, 1935, 473
458, 1008, 3135, 2600
459, 1603, 2123, 2120
460, 2509, 2812, 1809
461, 593, 2251, 1966
462, 1016, 2153, 2152
463, 2600, 3135, 2599
464, 1858, 3012, 2893
465, 2893, 3012, 526
466, 294, 2512, 483
467, 505, 3286, 2027
468, 2512, 3060, 1696
469, 63, 1067, 1
470, 2583, 2585, 1645
471, 1485, 2477, 2475
472, 1913, 3144, 1724
473, 1002, 2545, 1001
474, 561, 3002, 2274
475, 1353, 2588, 2584
476, 516, 3091, 1890
477, 2274, 3027, 561
478, 520, 2051, 1863
479, 1354, 2059, 2057
480, 2120, 2122, 1603
481, 1966, 3259, 1965
482, 2560, 2561, 1677
483, 2119, 2123, 547
484, 516, 3284, 3091
485, 1863, 2909, 520
486, 2204, 3160, 2060
487, 1979, 2012, 580
488, 1344, 2111, 2109
489, 1865, 3100, 494
490, 560, 2481, 2480
491, 3038, 3062, 496
492, 1852, 3062, 3038
493, 482, 1974, 1869
494, 511, 3036, 1870
495, 1870, 3057, 511
496, 1809, 3164, 2509
497, 2555, 2895, 1796
498, 2609, 2672, 1811
499, 2124, 2750, 1604
500, 3024, 3065, 596
501, 2909, 3014, 520
502, 2103, 3088, 2949
503, 1911, 3143, 2997
504, 505, 2027, 7
505, 1869, 1973, 482
506, 1979, 2040, 1978
507, 2027, 3286, 1862
508, 1874, 3014, 2909
509, 2514, 3010, 1703
510, 3022, 3113, 1701
511, 1703, 3035, 2514
512, 2480, 3113, 3022
513, 1485, 2479, 2477
514, 1695, 3056, 2581
515, 2109, 2110, 1344
516, 1343, 2335, 2301
517, 429, 2083, 253
518, 1355, 2333, 2302
519, 295, 2512, 294
520, 952, 2529, 906
521, 1700, 2150, 2144
522, 1491, 2493, 2492
523, 467, 3045, 2449
524, 3045, 3080, 2449
525, 3121, 3146, 407
526, 1969, 2000, 1971
527, 1476, 1940, 1939
528, 1913, 1931, 577
529, 1920, 3146, 3121
530, 2448, 3118, 2486
531, 1890, 3091, 1501
532, 906, 2529, 1052
533, 2514, 3035, 1728
534, 1880, 2149, 512
535, 1022, 2545, 1002
536, 1728, 3055, 2514
537, 2597, 3097, 1732
538, 526, 3012, 1870
539, 2123, 2750, 2124
540, 2120, 2123, 2119
541, 2034, 3000, 2534
542, 2489, 2491, 1498
543, 1521, 2511, 1523
544, 2888, 3098, 2171
545, 467, 3027, 2274
546, 506, 1883, 1873
547, 1870, 3036, 526
548, 524, 2132, 2111
549, 2302, 2335, 1355
550, 1732, 2599, 2597
551, 2274, 3045, 467
552, 1974, 2988, 1869
553, 437, 2984, 2570
554, 924, 2540, 923
555, 1917, 3073, 2458
556, 1961, 1996, 1959
557, 482, 1973, 267
558, 949, 2011, 1980
559, 1973, 2014, 266
560, 1799, 2878, 2528
561, 2585, 3136, 1645
562, 504, 2171, 1901
563, 1899, 2152, 479
564, 2449, 3080, 527
565, 231, 2054, 230
566, 1974, 1988, 1854
567, 1016, 2154, 2153
568, 1690, 3133, 2459
569, 3080, 3120, 527
570, 2888, 3067, 1810
571, 481, 2762, 1875
572, 2152, 3114, 1016
573, 1876, 2049, 510
574, 1854, 1988, 1905
575, 2491, 2493, 1498
576, 2455, 3093, 2454
577, 1353, 3132, 2588
578, 3093, 3131, 2454
579, 1842, 3284, 2015
580, 512, 2150, 1880
581, 579, 2000, 1969
582, 2262, 3134, 1932
583, 1347, 2031, 1345
584, 1855, 1974, 1854
585, 253, 2083, 252
586, 437, 3287, 2984
587, 2581, 3167, 1695
588, 514, 2243, 1884
589, 2057, 3137, 1354
590, 1001, 3075, 2540
591, 2123, 2124, 547
592, 1933, 2013, 574
593, 77, 3150, 3063
594, 2225, 2780, 444
595, 1476, 1941, 1940
596, 575, 1972, 1929
597, 494, 3063, 1865
598, 129, 3109, 3108
599, 2561, 2562, 1945
600, 2544, 2718, 1777
601, 1903, 2510, 483
602, 580, 2040, 1979
603, 1921, 3155, 1881
604, 1921, 3197, 3155
605, 1880, 2850, 2149
606, 2480, 3022, 560
607, 1852, 3105, 3062
608, 594, 1958, 1956
609, 1966, 1968, 593
610, 1811, 3153, 2609
611, 510, 3111, 1876
612, 2534, 3207, 2034
613, 1604, 3023, 2124
614, 1914, 3105, 1852
615, 1498, 2696, 2489
616, 576, 2248, 1994
617, 2003, 3065, 3024
618, 261, 2048, 260
619, 2111, 2132, 2109
620, 496, 3014, 1874
621, 1891, 2242, 513
622, 564, 3001, 2055
623, 1883, 3306, 1873
624, 483, 2512, 2511
625, 1959, 1996, 578
626, 2561, 3126, 1677
627, 1298, 2335, 1296
628, 1875, 3262, 481
629, 555, 2799, 2556
630, 1818, 3100, 1865
631, 1355, 2376, 2333
632, 2448, 2486, 538
633, 2192, 2209, 1795
634, 1987, 2993, 565
635, 1882, 2937, 438
636, 1874, 3038, 496
637, 1951, 1993, 597
638, 516, 1890, 60
639, 1796, 3138, 2555
640, 2949, 3116, 2103
641, 1930, 2935, 1887
642, 2003, 3185, 3034
643, 1928, 2589, 2588
644, 1450, 3043, 2473
645, 2054, 3233, 230
646, 1741, 2558, 2557
647, 1908, 2047, 509
648, 970, 3104, 3073
649, 2455, 3055, 1728
650, 2492, 2493, 2491
651, 2492, 2494, 1491
652, 2935, 3077, 1887
653, 2149, 2850, 570
654, 573, 3209, 1978
655, 3176, 3218, 2136
656, 2011, 2012, 1980
657, 1901, 3109, 504
658, 1842, 2015, 1925
659, 2489, 2696, 2488
660, 479, 3108, 1899
661, 1871, 3092, 1895
662, 1728, 3093, 2455
663, 2480, 2481, 2478
664, 1894, 2778, 1934
665, 2458, 3177, 1917
666, 3024, 3185, 2003
667, 1674, 3218, 3176
668, 1489, 2150, 1487
669, 2015, 3284, 516
670, 2478, 2479, 1693
671, 1945, 2562, 554
672, 1871, 3130, 3092
673, 1576, 2577, 1578
674, 2585, 2586, 1927
675, 3063, 3150, 1867
676, 2000, 2001, 1971
677, 903, 3101, 3061
678, 462, 2589, 1928
679, 1829, 2777, 2542
680, 1894, 3070, 2778
681, 3068, 3112, 2140
682, 3123, 3148, 1943
683, 3108, 3109, 1900
684, 565, 3213, 1987
685, 2154, 3101, 2997
686, 551, 2156, 1910
687, 3056, 3097, 2520
688, 2473, 3298, 1450
689, 1927, 2586, 452
690, 1961, 1997, 1996
691, 2606, 2726, 2446
692, 2780, 3240, 444
693, 3071, 3076, 2827
694, 1902, 2904, 435
695, 2447, 3118, 2448
696, 1493, 3112, 3068
697, 1860, 3277, 1912
698, 2459, 2460, 1690
699, 2477, 2479, 2478
700, 1054, 3052, 2046
701, 1475, 3148, 3123
702, 2650, 3117, 541
703, 1994, 2248, 1995
704, 1980, 2012, 1979
705, 1523, 2511, 1696
706, 1903, 2511, 1521
707, 1989, 2610, 1819
708, 2144, 2150, 512
709, 1925, 2015, 585
710, 464, 2550, 1922
711, 2598, 3135, 1806
712, 2545, 3075, 1001
713, 522, 2178, 1878
714, 2949, 3088, 1835
715, 1698, 2014, 1973
716, 1951, 3295, 1994
717, 438, 3280, 1882
718, 1951, 1994, 1993
719, 1705, 3133, 1690
720, 1950, 3295, 1951
721, 483, 2511, 1903
722, 1698, 2031, 2014
723, 261, 3231, 2048
724, 2301, 2335, 2302
725, 2301, 3304, 1343
726, 1699, 3031, 3008
727, 1944, 2047, 1908
728, 1908, 2031, 1347
729, 1805, 3145, 2519
730, 1799, 2614, 1692
731, 3016, 3134, 2262
732, 2005, 2007, 2006
733, 2372, 2517, 2371
734, 2084, 2203, 1684
735, 2013, 3211, 574
736, 541, 3255, 2650
737, 579, 1969, 1967
738, 1957, 1959, 578
739, 1939, 2908, 1476
740, 62, 1883, 506
741, 2005, 2043, 2007
742, 2528, 3171, 1799
743, 3066, 3134, 1947
744, 1888, 3150, 454
745, 1805, 2519, 2518
746, 1492, 3089, 3050
747, 3008, 3031, 2483
748, 511, 3057, 1895
749, 1997, 1998, 961
750, 2334, 2376, 1685
751, 1422, 2493, 1420
752, 585, 3005, 1925
753, 570, 2850, 1904
754, 597, 2023, 1951
755, 1685, 2375, 2334
756, 2333, 2376, 2334
757, 2488, 2696, 1699
758, 575, 3205, 1972
759, 564, 3270, 3001
760, 1895, 3092, 511
761, 1345, 2031, 1698
762, 555, 3227, 2799
763, 509, 2031, 1908
764, 2111, 3316, 524
765, 10, 1913, 577
766, 236, 3147, 1889
767, 1795, 3127, 2192
768, 3050, 3089, 2463
769, 527, 3120, 1881
770, 1517, 2566, 1519
771, 1967, 2024, 579
772, 578, 2025, 1957
773, 1903, 2566, 2510
774, 962, 2002, 2001
775, 1605, 2576, 2575
776, 239, 3165, 1896
777, 1677, 3072, 2560
778, 1889, 3204, 236
779, 1936, 1937, 535
780, 1699, 3008, 2488
781, 1881, 3155, 527
782, 1926, 3005, 1981
783, 594, 2994, 1958
784, 1968, 2995, 593
785, 1896, 3195, 239
786, 1296, 2335, 1343
787, 1732, 3097, 1731
788, 1355, 2335, 1298
789, 1981, 3005, 1976
790, 3073, 3104, 2460
791, 1350, 2047, 1944
792, 1862, 2028, 2027
793, 1980, 2026, 949
794, 1825, 2580, 2579
795, 531, 2670, 2485
796, 1341, 2836, 2531
797, 2046, 3052, 1999
798, 581, 2982, 1995
799, 2005, 3028, 2043
800, 19, 2006, 596
801, 480, 2954, 2266
802, 2577, 3023, 1604
803, 2253, 3295, 1950
804, 429, 3058, 2083
805, 1904, 2973, 570
806, 3042, 3046, 1325
807, 18, 2006, 19
808, 1904, 3019, 2973
809, 2454, 3131, 1536
810, 1836, 2726, 2606
811, 1916, 2602, 534
812, 1950, 3179, 2253
813, 2043, 3028, 586
814, 2144, 3310, 1700
815, 1732, 2600, 2599
816, 40, 1924, 519
817, 518, 1923, 29
818, 1825, 2581, 2580
819, 1536, 3168, 2454
820, 2125, 3261, 2122
821, 1839, 2788, 2612
822, 435, 3272, 1902
823, 2018, 3007, 497
824, 269, 1988, 268
825, 500, 1986, 1985
826, 3261, 3292, 2122
827, 1686, 3032, 3009
828, 1932, 3134, 3066
829, 1741, 3215, 2558
830, 1456, 2479, 1454
831, 1478, 1942, 1941
832, 1487, 2150, 1700
833, 1578, 2577, 1604
834, 1995, 2982, 1991
835, 2012, 3020, 2061
836, 1605, 2577, 1576
837, 1880, 2150, 1489
838, 2973, 3019, 566
839, 2584, 3074, 1353
840, 1993, 1995, 1991
841, 508, 1909, 37
842, 32, 1907, 507
843, 2678, 3121, 436
844, 1067, 1069, 1068
845, 153, 2040, 152
846, 2203, 2204, 1684
847, 2104, 3116, 2863
848, 3061, 3101, 2154
849, 585, 2015, 58
850, 1731, 3056, 1695
851, 1731, 3097, 3056
852, 2594, 3289, 2595
853, 2007, 3024, 596
854, 1878, 3265, 522
855, 2600, 3076, 3071
856, 1354, 3084, 2059
857, 3289, 3311, 2595
858, 1686, 2375, 1685
859, 2011, 3020, 2012
860, 3009, 3032, 2506
861, 3029, 3103, 1999
862, 1789, 3191, 2146
863, 1645, 3074, 2583
864, 1777, 3163, 2544
865, 285, 3115, 3102
866, 1989, 3244, 2610
867, 2575, 2577, 1605
868, 2555, 3090, 2895
869, 1999, 3103, 2046
870, 1692, 2614, 1809
871, 1963, 2778, 1962
872, 1054, 2020, 2019
873, 3077, 3206, 1886
874, 1952, 2935, 1953
875, 2612, 2788, 2268
876, 2863, 3250, 2104
877, 1686, 3009, 2375
878, 952, 3083, 2529
879, 2262, 3230, 517
880, 2243, 3140, 1884
881, 1498, 2493, 1422
882, 1420, 2493, 1491
883, 2141, 3022, 1701
884, 2156, 3143, 1910
885, 7, 2027, 8
886, 1722, 3144, 2028
887, 12, 1946, 592
888, 1995, 2248, 581
889, 1893, 3192, 3070
890, 1806, 3175, 2598
891, 2141, 3041, 2140
892, 1946, 1947, 592
893, 2146, 3238, 1789
894, 1884, 3139, 514
895, 60, 1890, 61
896, 1876, 3111, 1800
897, 2458, 3073, 2460
898, 1944, 2048, 1350
899, 536, 3146, 1918
900, 2004, 2006, 18
901, 2171, 3098, 1901
902, 1603, 2750, 2123
903, 1519, 2566, 1903
904, 1984, 2566, 1517
905, 2517, 3242, 2371
906, 151, 2061, 150
907, 1925, 3005, 1926
908, 42, 1952, 572
909, 571, 1962, 27
910, 1302, 2376, 1300
911, 1984, 2565, 546
912, 3049, 3051, 2569
913, 2006, 2007, 596
914, 1952, 1953, 572
915, 571, 1963, 1962
916, 2983, 3023, 445
917, 1948, 2023, 592
918, 2060, 3084, 1662
919, 1701, 3041, 2141
920, 2016, 2018, 563
921, 1951, 2023, 1948
922, 3041, 3068, 2140
923, 595, 1975, 56
924, 2016, 2933, 1660
925, 513, 3154, 1891
926, 268, 1988, 482
927, 595, 1976, 1975
928, 1976, 3005, 1975
929, 1605, 2578, 2576
930, 571, 2024, 1964
931, 1954, 2025, 572
932, 1899, 3114, 2152
933, 1804, 3145, 1805
934, 1365, 3137, 2056
935, 563, 2933, 2016
936, 1572, 2578, 1574
937, 436, 3249, 2678
938, 1964, 2024, 1967
939, 1957, 2025, 1954
940, 1562, 3107, 3094
941, 1054, 2046, 2020
942, 38, 1909, 568
943, 588, 3040, 1972
944, 567, 1907, 31
945, 1985, 1987, 500
946, 595, 2026, 1977
947, 1693, 2479, 1456
948, 1454, 2479, 1485
949, 2182, 3152, 2180
950, 1935, 1936, 473
951, 3042, 3069, 2591
952, 1977, 2026, 1980
953, 476, 3105, 1914
954, 1867, 3150, 1888
955, 1990, 1993, 1991
956, 152, 2040, 580
957, 573, 2040, 153
958, 1891, 3142, 2242
959, 2544, 3129, 2718
960, 2266, 3278, 480
961, 454, 3174, 1888
962, 2599, 3135, 2598
963, 1945, 3126, 2561
964, 1898, 3196, 2515
965, 2369, 2371, 490
966, 2452, 3168, 1536
967, 450, 3320, 2744
968, 2071, 2950, 2070
969, 497, 3264, 2018
970, 546, 2566, 1984
971, 1349, 3026, 1906
972, 3152, 3198, 2180
973, 1568, 3030, 3017
974, 2615, 3320, 450
975, 9, 1913, 10
976, 3130, 3238, 499
977, 1946, 3066, 1947
978, 2609, 3099, 2672
979, 16, 1990, 957
980, 1990, 1991, 957
981, 2008, 2011, 949
982, 2591, 3046, 3042
983, 1536, 3210, 2452
984, 2021, 2022, 1814
985, 17, 2004, 18
986, 1363, 2022, 2021
987, 2591, 3069, 486
988, 1021, 2008, 52
989, 2093, 2094, 1254
990, 1021, 2009, 2008
991, 265, 2014, 509
992, 39, 1924, 40
993, 29, 1923, 30
994, 1054, 2019, 50
995, 266, 2014, 265
996, 1862, 3221, 2028
997, 1994, 1995, 1993
998, 2777, 3169, 2542
999, 482, 1988, 1974
1000, 2509, 3096, 2812
1001, 1900, 3109, 1901
1002, 150, 2061, 584
1003, 580, 2061, 151
1004, 1300, 2376, 1355
1005, 1685, 2376, 1302
1006, 2842, 3303, 2205
1007, 1899, 3108, 1900
1008, 1250, 2072, 2070
1009, 2095, 2915, 2094
1010, 2452, 3210, 1857
1011, 1330, 2950, 2071
1012, 1989, 2033, 493
1013, 1998, 1999, 961
1014, 58, 2015, 59
1015, 3079, 3087, 2533
1016, 2993, 3006, 1715
1017, 1793, 3276, 1907
1018, 1217, 2915, 2095
1019, 2110, 3047, 1344
1020, 1250, 2852, 2072
1021, 2070, 2950, 1250
1022, 2154, 2997, 2153
1023, 2095, 2196, 1217
1024, 1984, 2912, 2565
1025, 1912, 3277, 202
1026, 2124, 2983, 547
1027, 962, 2003, 2002
1028, 1857, 3252, 2452
1029, 2056, 3257, 1365
1030, 1693, 2480, 2478
1031, 1574, 2578, 1605
1032, 1683, 2578, 1572
1033, 295, 3060, 2512
1034, 1937, 1938, 535
1035, 961, 3322, 1997
1036, 2072, 2852, 2073
1037, 2113, 2948, 2196
1038, 531, 3217, 2670
1039, 3089, 3125, 2463
1040, 2084, 2970, 1850
1041, 1887, 3077, 1886
1042, 2209, 3138, 1795
1043, 893, 2958, 2045
1044, 2483, 3031, 1492
1045, 2127, 2929, 2076
1046, 1363, 2045, 2022
1047, 2030, 2063, 1317
1048, 11, 1946, 12
1049, 2094, 2915, 1254
1050, 1922, 3173, 464
1051, 1907, 3212, 1793
1052, 2542, 3158, 1829
1053, 3102, 3115, 1864
1054, 2013, 3044, 587
1055, 1478, 1943, 1942
1056, 2550, 3153, 1922
1057, 1660, 2933, 1944
1058, 453, 3197, 1921
1059, 2012, 2061, 580
1060, 2180, 3198, 2181
1061, 1918, 3224, 536
1062, 1691, 2946, 2941
1063, 41, 1952, 42
1064, 27, 1962, 28
1065, 1847, 2063, 2030
1066, 2073, 2852, 1203
1067, 2124, 3023, 2983
1068, 1956, 3324, 594
1069, 1079, 2115, 1215
1070, 1069, 1070, 1068
1071, 2511, 2512, 1696
1072, 2196, 2948, 1217
1073, 2014, 2031, 509
1074, 56, 1975, 57
1075, 1215, 2115, 2114
1076, 2588, 3132, 1928
1077, 2264, 2990, 2266
1078, 2019, 2020, 2010
1079, 2001, 3315, 962
1080, 2531, 3216, 1341
1081, 1077, 2115, 1079
1082, 2791, 2942, 2164
1083, 2098, 2826, 2100
1084, 1921, 3229, 453
1085, 2446, 3162, 2606
1086, 592, 2023, 13
1087, 2939, 2989, 2118
1088, 2064, 2427, 1717
1089, 1368, 2427, 2064
1090, 1947, 1948, 592
1091, 1369, 2066, 2065
1092, 2065, 2066, 1687
1093, 1910, 3157, 551
1094, 1909, 3275, 1787
1095, 1020, 2946, 1691
1096, 1203, 2127, 2073
1097, 2463, 3125, 2464
1098, 1893, 3070, 1894
1099, 2114, 2116, 1215
1100, 572, 2025, 43
1101, 26, 2024, 571
1102, 1833, 2032, 2029
1103, 1790, 2999, 2949
1104, 2029, 2032, 1366
1105, 1865, 3063, 1867
1106, 732, 2166, 733
1107, 1953, 1954, 572
1108, 571, 1964, 1963
1109, 14, 2023, 597
1110, 55, 2026, 595
1111, 2100, 2826, 1733
1112, 1492, 3050, 2483
1113, 3198, 3237, 2181
1114, 44, 2025, 578
1115, 579, 2024, 25
1116, 1021, 2019, 2010
1117, 1871, 3238, 3130
1118, 595, 1977, 1976
1119, 957, 2004, 17
1120, 15, 1990, 16
1121, 1210, 2078, 1082
1122, 1859, 3300, 2200
1123, 949, 2026, 54
1124, 1082, 2078, 1080
1125, 1735, 2843, 2039
1126, 45, 1996, 46
1127, 1219, 2730, 2038
1128, 2077, 2078, 1210
1129, 24, 2000, 579
1130, 2163, 2166, 732
1131, 1799, 3171, 2614
1132, 52, 2008, 53
1133, 2878, 3119, 2528
1134, 2169, 2876, 1257
1135, 1210, 2079, 2077
1136, 2964, 2965, 1243
1137, 2510, 2566, 546
1138, 1684, 2970, 2084
1139, 2951, 2992, 1791
1140, 1876, 3124, 2049
1141, 883, 2924, 2050
1142, 50, 2019, 51
1143, 2075, 2127, 2076
1144, 2045, 2958, 2022
1145, 2092, 2094, 2093
1146, 2796, 2914, 1673
1147, 1219, 2038, 2037
1148, 932, 2204, 1662
1149, 2028, 3221, 1722
1150, 732, 2184, 2163
1151, 1847, 3007, 2063
1152, 1684, 2204, 932
1153, 2039, 2843, 2087
1154, 745, 2942, 2791
1155, 1317, 2195, 2030
1156, 960, 2826, 2098
1157, 960, 2098, 2097
1158, 2475, 3314, 1485
1159, 1499, 2094, 2092
1160, 2175, 2822, 2116
1161, 2041, 2793, 2097
1162, 2032, 2133, 1366
1163, 1991, 1992, 957
1164, 453, 3229, 1905
1165, 2207, 2978, 1208
1166, 733, 2166, 736
1167, 1787, 3220, 1909
1168, 2009, 2011, 2008
1169, 1021, 2010, 2009
1170, 1203, 2929, 2127
1171, 1249, 2175, 2173
1172, 1249, 2822, 2175
1173, 2057, 2059, 2058
1174, 2064, 2963, 2962
1175, 2962, 2963, 2065
1176, 2116, 2822, 1215
1177, 2035, 2036, 740
1178, 740, 2041, 2035
1179, 1255, 2918, 2195
1180, 1794, 3127, 1795
1181, 1987, 3006, 2993
1182, 2173, 2786, 1249
1183, 1702, 3051, 3049
1184, 2214, 2882, 2845
1185, 1253, 2235, 2087
1186, 2163, 2184, 2162
1187, 535, 3307, 1936
1188, 2050, 2924, 1767
1189, 742, 2041, 739
1190, 2097, 2793, 960
1191, 2795, 2914, 2796
1192, 2174, 2786, 2173
1193, 2066, 2978, 2207
1194, 1193, 2042, 1191
1195, 2038, 2877, 2876
1196, 1086, 2080, 1084
1197, 2876, 2877, 1257
1198, 1905, 3279, 453
1199, 566, 3064, 2260
1200, 2200, 3300, 542
1201, 423, 2058, 495
1202, 2036, 2147, 740
1203, 2174, 2229, 1214
1204, 2145, 2146, 2126
1205, 1092, 2216, 1090
1206, 1589, 2074, 1587
1207, 1937, 1939, 1938
1208, 2133, 2819, 2096
1209, 424, 2058, 423
1210, 361, 2107, 503
1211, 1214, 2786, 2174
1212, 62, 506, 63
1213, 2037, 2042, 1219
1214, 1931, 3066, 577
1215, 1257, 2922, 2169
1216, 610, 2825, 2090
1217, 263, 2047, 1350
1218, 1317, 2063, 2062
1219, 891, 2045, 911
1220, 2887, 2932, 1832
1221, 2115, 2948, 2113
1222, 2239, 3106, 3034
1223, 2074, 2127, 2075
1224, 2090, 2825, 2089
1225, 2160, 2161, 1374
1226, 1927, 3136, 2585
1227, 6, 505, 7
1228, 2036, 2148, 2147
1229, 1374, 2162, 2160
1230, 1378, 2177, 1376
1231, 739, 2041, 740
1232, 1348, 2053, 2052
1233, 2087, 2843, 1253
1234, 1348, 2054, 2053
1235, 2107, 2108, 503
1236, 2086, 2987, 2941
1237, 2227, 2885, 2229
1238, 2106, 2108, 2107
1239, 911, 2045, 1363
1240, 1499, 2095, 2094
1241, 1348, 2052, 426
1242, 2114, 2691, 2116
1243, 2116, 2691, 1502
1244, 1213, 2215, 2214
1245, 2074, 2075, 1587
1246, 1219, 2042, 1193
1247, 2245, 2903, 2823
1248, 2955, 2959, 1784
1249, 2845, 2882, 2080
1250, 2214, 2845, 1213
1251, 2738, 2959, 1017
1252, 2076, 2929, 2078
1253, 2126, 2185, 2145
1254, 2079, 2779, 2077
1255, 2032, 2819, 2133
1256, 2730, 2877, 2038
1257, 2196, 2883, 2112
1258, 506, 1067, 63
1259, 742, 2793, 2041
1260, 2058, 2059, 495
1261, 2033, 2034, 493
1262, 510, 2049, 66
1263, 1084, 2080, 1210
1264, 2515, 3269, 1898
1265, 2193, 2779, 2079
1266, 227, 2051, 520
1267, 1958, 2994, 1960
1268, 1970, 2995, 1968
1269, 1093, 2230, 1209
1270, 1317, 2062, 1258
1271, 2195, 2918, 2030
1272, 893, 2045, 891
1273, 1591, 2069, 1607
1274, 2162, 2184, 2160
1275, 1070, 1330, 1068
1276, 2835, 2862, 1263
1277, 1209, 2230, 2228
1278, 2054, 2055, 2053
1279, 2041, 2097, 2035
1280, 1947, 1949, 1948
1281, 1090, 2216, 1213
1282, 2168, 2876, 2169
1283, 1232, 2085, 1255
1284, 2042, 2835, 1191
1285, 1018, 2989, 2939
1286, 1242, 2195, 1317
1287, 2069, 2072, 1607
1288, 2100, 2958, 893
1289, 2161, 2254, 1374
1290, 836, 2133, 2096
1291, 362, 2107, 361
1292, 1719, 2177, 1378
1293, 1986, 2083, 2082
1294, 2095, 2883, 2196
1295, 2229, 2885, 1214
1296, 889, 2099, 893
1297, 1367, 2162, 964
1298, 2091, 2880, 2090
1299, 1964, 1965, 1963
1300, 1953, 1955, 1954
1301, 1986, 2082, 1716
1302, 2529, 3119, 1052
1303, 2067, 2068, 1593
1304, 2228, 2231, 1209
1305, 2871, 2925, 2208
1306, 1098, 2247, 1096
1307, 1091, 2230, 1093
1308, 263, 1350, 262
1309, 1502, 2175, 2116
1310, 2087, 2235, 1711
1311, 1069, 1071, 1070
1312, 1977, 1978, 1976
1313, 2086, 2856, 1744
1314, 160, 2144, 512
1315, 964, 2162, 1374
1316, 1086, 2845, 2080
1317, 1362, 2081, 1877
1318, 2098, 2100, 2099
1319, 1594, 2067, 1593
1320, 2576, 2938, 544
1321, 1784, 2959, 2738
1322, 3017, 3030, 2549
1323, 2099, 2100, 893
1324, 1092, 2823, 2216
1325, 2092, 2093, 1494
1326, 6, 1982, 505
1327, 1357, 2088, 1807
1328, 2164, 2942, 2166
1329, 872, 2923, 2869
1330, 1482, 2092, 1494
1331, 2089, 2825, 796
1332, 2062, 2063, 2017
1333, 1222, 2085, 1232
1334, 1782, 2920, 2878
1335, 2043, 2044, 2007
1336, 2165, 2249, 940
1337, 1607, 2074, 1589
1338, 65, 1351, 64
1339, 427, 1348, 426
1340, 229, 1349, 228
1341, 65, 2049, 1351
1342, 521, 2058, 424
1343, 2823, 2903, 2216
1344, 1210, 2080, 2079
1345, 509, 2047, 264
1346, 1349, 2051, 228
1347, 888, 2099, 889
1348, 363, 2105, 362
1349, 1095, 2232, 1097
1350, 1360, 2062, 2017
1351, 1360, 2016, 1660
1352, 495, 2831, 422
1353, 903, 2932, 2887
1354, 1366, 2133, 912
1355, 1211, 2246, 2245
1356, 2042, 2862, 2835
1357, 2283, 2868, 2787
1358, 36, 508, 37
1359, 32, 507, 33
1360, 2052, 2056, 521
1361, 2165, 2254, 2161
1362, 1381, 2924, 883
1363, 2794, 2840, 2277
1364, 1376, 2177, 2085
1365, 1992, 2004, 957
1366, 2148, 2824, 813
1367, 2066, 2207, 1687
1368, 67, 2128, 510
1369, 988, 2898, 2827
1370, 1944, 2933, 2048
1371, 1714, 1715, 1713
1372, 1585, 2075, 1606
1373, 2145, 2185, 326
1374, 489, 2131, 2129
1375, 2245, 2823, 1211
1376, 2129, 2131, 2130
1377, 2153, 2155, 2151
1378, 1850, 2970, 2738
1379, 2102, 2103, 478
1380, 425, 2052, 521
1381, 364, 2102, 478
1382, 1367, 2163, 2162
1383, 2147, 2148, 751
1384, 2966, 2967, 2619
1385, 2619, 2967, 1202
1386, 1262, 1360, 1347
1387, 2036, 2824, 2148
1388, 2056, 2057, 521
1389, 2105, 2107, 362
1390, 798, 2089, 796
1391, 1364, 1366, 912
1392, 896, 2856, 2086
1393, 1364, 1820, 1366
1394, 911, 1363, 1361
1395, 2017, 2018, 2016
1396, 1587, 2075, 1585
1397, 836, 2096, 749
1398, 2151, 2155, 126
1399, 1363, 1808, 1361
1400, 61, 1883, 62
1401, 1251, 2235, 1253
1402, 1375, 2118, 2091
1403, 1194, 2176, 1207
1404, 1258, 2062, 1262
1405, 1262, 2062, 1360
1406, 1636, 2844, 2275
1407, 1820, 2029, 1366
1408, 2085, 2177, 1255
1409, 1360, 2017, 2016
1410, 1716, 2082, 1379
1411, 1715, 2039, 1713
1412, 2167, 2249, 2165
1413, 940, 2254, 2165
1414, 489, 2129, 69
1415, 1096, 2247, 1211
1416, 1253, 2201, 1237
1417, 1192, 2101, 1194
1418, 2864, 2896, 2379
1419, 1383, 2249, 2167
1420, 163, 2134, 502
1421, 2060, 2831, 495
1422, 2172, 2175, 1502
1423, 1480, 2092, 1482
1424, 2072, 2073, 1607
1425, 1985, 1986, 1716
1426, 1259, 2235, 1251
1427, 2108, 2109, 503
1428, 1714, 1798, 1715
1429, 885, 2118, 1375
1430, 264, 2047, 263
1431, 477, 2119, 324
1432, 468, 2139, 168
1433, 1712, 1713, 1711
1434, 164, 2135, 2134
1435, 1363, 2021, 1808
1436, 1387, 2858, 2337
1437, 2109, 2132, 503
1438, 2277, 2278, 1205
1439, 1104, 2285, 1102
1440, 2941, 2946, 1669
1441, 2174, 2296, 2229
1442, 2075, 2076, 1606
1443, 1242, 1317, 1258
1444, 1807, 1896, 1814
1445, 1207, 2176, 1223
1446, 1939, 1940, 1938
1447, 1213, 2216, 2215
1448, 477, 2120, 2119
1449, 2565, 2912, 442
1450, 1600, 1736, 1597
1451, 2129, 2130, 2128
1452, 1051, 1364, 912
1453, 751, 2148, 807
1454, 1379, 2082, 1718
1455, 477, 2185, 2121
1456, 911, 1361, 963
1457, 468, 2140, 2139
1458, 1379, 1718, 1378
1459, 888, 889, 887
1460, 2795, 2796, 1851
1461, 1470, 2112, 1472
1462, 2053, 2056, 2052
1463, 1194, 1207, 1195
1464, 512, 2149, 159
1465, 502, 2143, 2142
1466, 167, 2139, 2138
1467, 1377, 1378, 1376
1468, 1377, 1379, 1378
1469, 1207, 1222, 1212
1470, 1593, 2069, 1591
1471, 2183, 2801, 1750
1472, 426, 2052, 425
1473, 1736, 2067, 1597
1474, 1209, 2232, 1095
1475, 1671, 2168, 1371
1476, 2059, 2060, 495
1477, 1833, 1889, 1786
1478, 1098, 2787, 2247
1479, 2121, 2185, 2126
1480, 8, 2027, 515
1481, 2232, 2840, 2794
1482, 852, 2117, 849
1483, 954, 2992, 2951
1484, 1597, 2067, 1594
1485, 1205, 2794, 2277
1486, 2068, 2071, 2070
1487, 747, 815, 748
1488, 1232, 1255, 1240
1489, 1236, 1376, 1230
1490, 1474, 1499, 1480
1491, 2108, 2110, 2109
1492, 1192, 1194, 1193
1493, 889, 893, 891
1494, 2189, 2936, 1381
1495, 747, 748, 744
1496, 885, 1375, 826
1497, 1356, 2088, 1357
1498, 1358, 1786, 1356
1499, 1236, 1377, 1376
1500, 815, 897, 816
1501, 1222, 1232, 1212
1502, 2279, 2739, 2278
1503, 886, 888, 887
1504, 474, 2156, 124
1505, 2787, 2868, 2247
1506, 2278, 2739, 1205
1507, 807, 2148, 813
1508, 67, 510, 66
1509, 265, 509, 264
1510, 503, 2132, 360
1511, 2337, 2858, 950
1512, 1207, 1212, 1195
1513, 1360, 1660, 1347
1514, 2101, 2176, 1194
1515, 899, 912, 836
1516, 2167, 2250, 1383
1517, 891, 911, 892
1518, 479, 2152, 2151
1519, 1216, 2284, 2283
1520, 2305, 2832, 2764
1521, 886, 887, 876
1522, 2202, 2203, 475
1523, 499, 2146, 2145
1524, 2191, 2806, 2259
1525, 897, 1356, 898
1526, 2168, 2169, 1855
1527, 167, 2138, 166
1528, 500, 3170, 1986
1529, 1357, 1807, 1734
1530, 1194, 1195, 1193
1531, 502, 2142, 162
1532, 654, 2801, 2183
1533, 2103, 2104, 478
1534, 2170, 2171, 504
1535, 2194, 2782, 2286
1536, 1247, 2279, 2218
1537, 2142, 2144, 161
1538, 1240, 2195, 1242
1539, 1247, 2739, 2279
1540, 425, 521, 424
1541, 227, 520, 226
1542, 2283, 2787, 1216
1543, 1463, 2172, 1502
1544, 1488, 1501, 1495
1545, 746, 747, 744
1546, 364, 478, 363
1547, 815, 816, 748
1548, 2097, 2098, 1738
1549, 912, 2133, 836
1550, 1499, 2092, 1480
1551, 2027, 2028, 515
1552, 2228, 2322, 2231
1553, 420, 2202, 475
1554, 1499, 2883, 2095
1555, 1230, 2085, 1222
1556, 70, 2192, 489
1557, 1367, 2164, 2163
1558, 163, 502, 162
1559, 328, 499, 327
1560, 68, 2129, 2128
1561, 2275, 2844, 1802
1562, 1709, 1711, 1319
1563, 1689, 1772, 1019
1564, 525, 2170, 132
1565, 2232, 2794, 1097
1566, 476, 2182, 2179
1567, 1718, 1844, 1719
1568, 1480, 1482, 1481
1569, 168, 2139, 167
1570, 1743, 2803, 2218
1571, 1844, 1846, 1845
1572, 1375, 2090, 2089
1573, 1772, 2117, 1019
1574, 499, 2145, 327
1575, 128, 479, 127
1576, 488, 2136, 2135
1577, 1474, 1480, 1479
1578, 68, 2128, 67
1579, 658, 2782, 2194
1580, 897, 1358, 1356
1581, 1591, 1607, 1589
1582, 826, 2089, 798
1583, 476, 2179, 221
1584, 479, 2151, 127
1585, 1362, 1877, 1876
1586, 1190, 1192, 1191
1587, 1600, 1862, 1736
1588, 822, 886, 876
1589, 161, 2144, 160
1590, 542, 2102, 365
1591, 2259, 2806, 2255
1592, 2230, 2885, 2227
1593, 66, 2049, 65
1594, 1011, 2925, 2871
1595, 2229, 2296, 2226
1596, 743, 744, 742
1597, 624, 2813, 621
1598, 1381, 2233, 2189
1599, 1375, 2091, 2090
1600, 1786, 2088, 1356
1601, 1712, 1714, 1713
1602, 2353, 2741, 2212
1603, 1370, 1671, 1371
1604, 881, 2157, 814
1605, 1664, 2118, 885
1606, 794, 2208, 1672
1607, 889, 891, 890
1608, 1592, 1593, 1591
1609, 1380, 1716, 1379
1610, 1807, 1814, 1734
1611, 1102, 2285, 1216
1612, 160, 512, 159
1613, 2331, 2821, 2217
1614, 1753, 2781, 2295
1615, 1019, 2117, 852
1616, 2157, 2208, 814
1617, 2179, 2182, 2180
1618, 2037, 2038, 1671
1619, 1189, 1190, 1188
1620, 1472, 1474, 1473
1621, 1851, 2820, 1060
1622, 1373, 2168, 1855
1623, 228, 2051, 227
1624, 325, 477, 324
1625, 488, 2135, 165
1626, 1497, 2112, 1470
1627, 1358, 1833, 1786
1628, 1709, 1712, 1711
1629, 738, 739, 737
1630, 1356, 1357, 898
1631, 2158, 2161, 2160
1632, 1590, 1591, 1589
1633, 2078, 2929, 1080
1634, 2231, 2322, 2270
1635, 1588, 1589, 1587
1636, 1470, 1472, 1471
1637, 1735, 1985, 1716
1638, 423, 495, 422
1639, 225, 496, 224
1640, 366, 2200, 542
1641, 331, 511, 330
1642, 478, 2105, 363
1643, 2112, 2883, 1472
1644, 418, 2178, 522
1645, 2949, 2999, 942
1646, 1737, 1738, 888
1647, 1192, 1193, 1191
1648, 2233, 2287, 2189
1649, 125, 2155, 474
1650, 1109, 2234, 1198
1651, 884, 885, 826
1652, 1467, 1470, 1469
1653, 1111, 2211, 1113
1654, 897, 898, 816
1655, 2158, 2160, 728
1656, 1482, 1494, 1484
1657, 896, 2086, 914
1658, 728, 729, 727
1659, 735, 2147, 751
1660, 323, 2119, 547
1661, 477, 2121, 2120
1662, 725, 727, 726
1663, 2250, 2760, 720
1664, 1738, 2099, 888
1665, 2220, 2771, 1745
1666, 1949, 1950, 1948
1667, 1198, 2234, 2186
1668, 2068, 2070, 2069
1669, 2217, 2821, 1653
1670, 2164, 2166, 2163
1671, 1190, 1191, 1188
1672, 741, 742, 739
1673, 2068, 2069, 1593
1674, 1223, 1230, 1222
1675, 2035, 2097, 1738
1676, 1461, 2172, 1463
1677, 1211, 2247, 2246
1678, 1265, 1370, 1268
1679, 2231, 2232, 1209
1680, 1465, 1467, 1466
1681, 1596, 1597, 1594
1682, 2306, 2772, 2224
1683, 1186, 1188, 1187
1684, 1371, 2168, 1373
1685, 2218, 2803, 1247
1686, 1367, 2790, 2164
1687, 732, 733, 731
1688, 1104, 2764, 2285
1689, 164, 2134, 163
1690, 736, 737, 735
1691, 218, 2197, 431
1692, 2295, 2781, 660
1693, 1231, 1236, 1230
1694, 2037, 2862, 2042
1695, 1497, 2113, 2112
1696, 166, 488, 165
1697, 1978, 1981, 1976
1698, 733, 735, 734
1699, 729, 731, 730
1700, 2152, 2153, 2151
1701, 2212, 2741, 2211
1702, 1964, 1966, 1965
1703, 2181, 2198, 2197
1704, 1955, 1956, 1954
1705, 1206, 2101, 1192
1706, 2222, 2759, 2221
1707, 71, 2209, 2192
1708, 1107, 2234, 1109
1709, 1713, 2087, 1711
1710, 1467, 1497, 1470
1711, 725, 2158, 728
1712, 1673, 2914, 2906
1713, 125, 474, 124
1714, 1586, 1587, 1585
1715, 2197, 2198, 431
1716, 835, 836, 749
1717, 2578, 2938, 2576
1718, 524, 2206, 358
1719, 37, 1909, 38
1720, 2764, 2832, 2285
1721, 1831, 1832, 1337
1722, 359, 2132, 524
1723, 1263, 1265, 1264
1724, 1373, 1855, 1854
1725, 724, 725, 723
1726, 1977, 1979, 1978
1727, 1370, 2037, 1671
1728, 365, 2102, 364
1729, 268, 482, 267
1730, 70, 489, 69
1731, 131, 2170, 504
1732, 813, 822, 821
1733, 1582, 1583, 1581
1734, 1380, 2843, 1735
1735, 1467, 2691, 1497
1736, 1584, 1585, 1583
1737, 662, 2771, 2220
1738, 1218, 2306, 2305
1739, 1376, 2085, 1230
1740, 2221, 2759, 664
1741, 2186, 2210, 1198
1742, 822, 876, 875
1743, 965, 1367, 964
1744, 946, 965, 964
1745, 131, 504, 130
1746, 361, 503, 360
1747, 2713, 3000, 2998
1748, 2338, 2770, 2314
1749, 2117, 2697, 849
1750, 123, 2156, 551
1751, 2098, 2099, 1738
1752, 421, 2202, 420
1753, 1370, 1371, 1268
1754, 845, 2795, 847
1755, 2207, 2965, 2964
1756, 2524, 2531, 2530
1757, 325, 2185, 477
1758, 374, 2532, 373
1759, 1232, 1240, 1239
1760, 744, 2793, 742
1761, 2167, 2760, 2250
1762, 1863, 1906, 1798
1763, 158, 2149, 570
1764, 31, 1907, 32
1765, 366, 542, 365
1766, 2305, 2764, 1218
1767, 1463, 1502, 1465
1768, 2878, 2920, 1052
1769, 1463, 1465, 1464
1770, 1375, 2089, 826
1771, 2201, 2843, 1380
1772, 725, 728, 727
1773, 1242, 1258, 1256
1774, 1502, 2691, 1465
1775, 999, 2783, 2633
1776, 2179, 2180, 523
1777, 2173, 2175, 2172
1778, 825, 826, 798
1779, 621, 2813, 620
1780, 475, 2178, 419
1781, 420, 475, 419
1782, 222, 476, 221
1783, 2113, 2196, 2112
1784, 162, 2142, 161
1785, 324, 2119, 323
1786, 514, 2205, 134
1787, 1255, 2195, 1240
1788, 2121, 2125, 2122
1789, 1992, 2005, 2004
1790, 1718, 1719, 1378
1791, 551, 2225, 122
1792, 1191, 2835, 1188
1793, 729, 2184, 732
1794, 814, 2208, 794
1795, 1504, 2172, 1461
1796, 1337, 2157, 881
1797, 2530, 2531, 456
1798, 1186, 1189, 1188
1799, 945, 2254, 941
1800, 2286, 2782, 2220
1801, 897, 2819, 1358
1802, 2213, 2303, 1575
1803, 159, 2149, 158
1804, 729, 732, 731
1805, 725, 726, 723
1806, 2121, 2122, 2120
1807, 1218, 2772, 2306
1808, 333, 526, 332
1809, 1240, 1242, 1241
1810, 965, 2790, 1367
1811, 2522, 2525, 2524
1812, 1474, 2883, 1499
1813, 946, 964, 945
1814, 1580, 1581, 1579
1815, 1497, 2691, 2114
1816, 71, 2192, 70
1817, 1198, 2211, 1111
1818, 666, 2770, 2338
1819, 165, 2135, 164
1820, 468, 2141, 2140
1821, 323, 547, 322
1822, 220, 2179, 523
1823, 1015, 1664, 885
1824, 2317, 2757, 2316
1825, 2226, 2296, 1457
1826, 69, 2129, 68
1827, 1187, 1263, 1248
1828, 733, 736, 735
1829, 739, 740, 737
1830, 2827, 2898, 1770
1831, 1251, 1253, 1237
1832, 1504, 2173, 2172
1833, 724, 2158, 725
1834, 1374, 2254, 945
1835, 219, 2197, 218
1836, 2215, 2303, 2213
1837, 2331, 2694, 1233
1838, 1586, 1588, 1587
1839, 1750, 2801, 2194
1840, 1467, 1469, 1466
1841, 1226, 2281, 1112
1842, 830, 2219, 805
1843, 360, 2132, 359
1844, 1582, 1584, 1583
1845, 1459, 1504, 1461
1846, 61, 1890, 1883
1847, 1190, 1206, 1192
1848, 2790, 2791, 2164
1849, 1459, 2296, 1504
1850, 1808, 2081, 1361
1851, 813, 2824, 822
1852, 729, 730, 727
1853, 747, 2096, 815
1854, 1588, 1590, 1589
1855, 1585, 1606, 1583
1856, 126, 2155, 125
1857, 2223, 2281, 1226
1858, 1461, 1463, 1462
1859, 2295, 2792, 2294
1860, 728, 2184, 729
1861, 733, 734, 731
1862, 2272, 2748, 2330
1863, 1832, 2157, 1337
1864, 1746, 2694, 2331
1865, 2261, 2262, 517
1866, 1580, 1582, 1581
1867, 557, 2532, 374
1868, 488, 2137, 2136
1869, 124, 2156, 123
1870, 470, 2528, 2527
1871, 1216, 2285, 2284
1872, 1319, 2235, 1259
1873, 1578, 1579, 1577
1874, 2554, 2555, 2553
1875, 470, 2527, 2526
1876, 2177, 2918, 1255
1877, 1190, 2190, 1206
1878, 1455, 2226, 1457
1879, 914, 1669, 937
1880, 359, 524, 358
1881, 133, 525, 132
1882, 327, 2145, 326
1883, 1361, 2081, 1362
1884, 886, 1737, 888
1885, 2211, 2741, 1113
1886, 902, 2236, 828
1887, 944, 946, 945
1888, 2633, 2783, 1654
1889, 2974, 2976, 2729
1890, 127, 2151, 126
1891, 166, 2138, 488
1892, 1579, 2193, 1608
1893, 1470, 1471, 1469
1894, 2869, 2923, 1778
1895, 966, 1017, 965
1896, 896, 914, 913
1897, 470, 2526, 372
1898, 1112, 2281, 1110
1899, 1581, 2193, 1579
1900, 1675, 2785, 1285
1901, 123, 551, 122
1902, 133, 2205, 525
1903, 1669, 1790, 1670
1904, 939, 941, 940
1905, 940, 2249, 916
1906, 2330, 2759, 2222
1907, 736, 738, 737
1908, 1584, 1586, 1585
1909, 916, 2249, 867
1910, 1465, 1466, 1464
1911, 719, 2287, 718
1912, 1172, 2979, 2977
1913, 1263, 1264, 1248
1914, 1472, 1473, 1471
1915, 2552, 2554, 2553
1916, 2330, 2748, 668
1917, 1459, 1461, 1460
1918, 1576, 1577, 1575
1919, 1590, 1592, 1591
1920, 1793, 2775, 1335
1921, 1711, 2235, 1319
1922, 1189, 2190, 1190
1923, 1057, 2738, 1017
1924, 944, 945, 941
1925, 1182, 2255, 1184
1926, 670, 2757, 2317
1927, 1774, 2236, 1014
1928, 1474, 1479, 1473
1929, 2263, 2265, 917
1930, 2553, 2555, 455
1931, 1747, 2740, 2271
1932, 917, 2267, 915
1933, 2217, 2844, 1636
1934, 221, 2179, 220
1935, 1504, 2296, 2174
1936, 1737, 2035, 1738
1937, 1850, 2738, 1057
1938, 2244, 2289, 1569
1939, 135, 2243, 514
1940, 1779, 1780, 1013
1941, 2522, 2524, 532
1942, 146, 2237, 589
1943, 456, 2200, 367
1944, 367, 2200, 366
1945, 1013, 2219, 830
1946, 790, 2379, 1663
1947, 943, 944, 941
1948, 889, 890, 887
1949, 346, 2239, 590
1950, 584, 2238, 149
1951, 1578, 1580, 1579
1952, 144, 2240, 583
1953, 357, 2206, 513
1954, 341, 2241, 581
1955, 1830, 1831, 1337
1956, 1780, 2219, 1013
1957, 2257, 2711, 2310
1958, 1179, 2298, 1177
1959, 2160, 2184, 728
1960, 721, 723, 722
1961, 581, 2248, 340
1962, 1226, 2311, 2223
1963, 355, 2242, 574
1964, 915, 2267, 938
1965, 1006, 2896, 2864
1966, 1377, 1380, 1379
1967, 1207, 1223, 1222
1968, 1457, 1459, 1458
1969, 2227, 2229, 2226
1970, 2159, 2161, 2158
1971, 594, 2252, 140
1972, 351, 2251, 593
1973, 368, 2530, 456
1974, 1592, 1594, 1593
1975, 576, 2253, 338
1976, 2311, 2758, 1748
1977, 418, 522, 417
1978, 220, 523, 219
1979, 794, 1672, 792
1980, 132, 2170, 131
1981, 2527, 2529, 2523
1982, 1014, 2236, 902
1983, 2246, 2289, 2244
1984, 1382, 2286, 2220
1985, 1579, 1608, 1577
1986, 749, 2096, 747
1987, 335, 2261, 517
1988, 566, 2260, 155
1989, 2265, 2267, 917
1990, 2271, 2740, 672
1991, 1333, 2800, 1787
1992, 760, 2287, 2233
1993, 1846, 1847, 1845
1994, 2114, 2115, 2113
1995, 2344, 2751, 2347
1996, 1844, 1845, 1719
1997, 2221, 2781, 1753
1998, 1576, 1578, 1577
1999, 743, 746, 744
2000, 1676, 2763, 1289
2001, 1200, 2353, 2347
2002, 1596, 1598, 1597
2003, 451, 2542, 2541
2004, 753, 2299, 2288
2005, 760, 2233, 762
2006, 2320, 2743, 2319
2007, 2521, 2522, 532
2008, 1050, 2373, 882
2009, 2353, 2798, 2352
2010, 1671, 2876, 2168
2011, 2256, 2259, 2255
2012, 1265, 1268, 1266
2013, 1228, 2364, 1118
2014, 1480, 1481, 1479
2015, 72, 2209, 71
2016, 455, 2209, 72
2017, 1768, 1774, 1014
2018, 939, 943, 941
2019, 2234, 2803, 1743
2020, 2798, 2809, 1434
2021, 2329, 2330, 2222
2022, 1950, 1951, 1948
2023, 2363, 2364, 1228
2024, 1910, 1911, 1831
2025, 2212, 2798, 2353
2026, 1878, 2084, 1850
2027, 1606, 2779, 1583
2028, 915, 916, 867
2029, 1964, 1967, 1966
2030, 2270, 2322, 1451
2031, 1956, 1957, 1954
2032, 2521, 2523, 2522
2033, 2210, 2211, 1198
2034, 824, 883, 882
2035, 1500, 2226, 1455
2036, 917, 2326, 2263
2037, 1745, 2771, 2338
2038, 721, 724, 723
2039, 2298, 2694, 1746
2040, 1200, 2741, 2353
2041, 1977, 1980, 1979
2042, 2390, 2712, 2350
2043, 883, 2050, 1050
2044, 8, 515, 9
2045, 2189, 2287, 722
2046, 373, 2532, 470
2047, 372, 2526, 371
2048, 1482, 1484, 1483
2049, 882, 2373, 955
2050, 1463, 1464, 1462
2051, 358, 2206, 357
2052, 1121, 2351, 1197
2053, 419, 2178, 418
2054, 468, 2280, 2141
2055, 2276, 2278, 2277
2056, 722, 2287, 719
2057, 1123, 2349, 1125
2058, 2183, 2810, 654
2059, 2005, 2006, 2004
2060, 2310, 2711, 2308
2061, 1197, 2351, 2345
2062, 720, 2288, 2250
2063, 1455, 1457, 1456
2064, 1500, 2227, 2226
2065, 2279, 2366, 2218
2066, 1447, 2276, 1503
2067, 1581, 2779, 2193
2068, 803, 896, 839
2069, 1238, 2816, 1252
2070, 1574, 1575, 1573
2071, 866, 867, 758
2072, 2355, 2737, 2358
2073, 1118, 2364, 1116
2074, 2194, 2801, 658
2075, 2090, 2880, 610
2076, 847, 2795, 1055
2077, 1663, 2773, 788
2078, 1449, 2270, 1451
2079, 2199, 2301, 2300
2080, 2347, 2751, 1200
2081, 122, 2225, 121
2082, 121, 2225, 444
2083, 737, 2147, 735
2084, 2276, 2277, 1503
2085, 718, 2287, 760
2086, 1336, 1337, 881
2087, 738, 741, 739
2088, 1659, 2325, 2324
2089, 2350, 2712, 2349
2090, 899, 1051, 912
2091, 1453, 2322, 1500
2092, 1382, 2690, 2286
2093, 1004, 2291, 2290
2094, 2121, 2126, 2125
2095, 1119, 2351, 1121
2096, 1182, 1184, 1183
2097, 846, 2697, 844
2098, 2224, 2336, 2306
2099, 2198, 2199, 431
2100, 2539, 2540, 2537
2101, 910, 2324, 863
2102, 941, 2254, 940
2103, 2282, 2312, 1563
2104, 2288, 2299, 2250
2105, 1832, 2871, 2157
2106, 1573, 2303, 1609
2107, 2476, 2477, 461
2108, 955, 2373, 2370
2109, 1177, 2298, 1229
2110, 2475, 2477, 2476
2111, 1228, 2365, 2363
2112, 1803, 2854, 1921
2113, 451, 2541, 116
2114, 1196, 2255, 1182
2115, 1453, 1500, 1455
2116, 955, 2370, 2368
2117, 1849, 1850, 1057
2118, 2222, 2669, 2329
2119, 863, 2324, 1655
2120, 591, 2237, 147
2121, 513, 2242, 356
2122, 674, 2743, 2320
2123, 1233, 2821, 2331
2124, 148, 2238, 591
2125, 589, 2240, 145
2126, 582, 2239, 347
2127, 2365, 2735, 1749
2128, 586, 2241, 342
2129, 867, 1383, 758
2130, 1184, 1186, 1185
2131, 2541, 2542, 2539
2132, 173, 2476, 461
2133, 824, 1381, 883
2134, 807, 813, 812
2135, 575, 2243, 136
2136, 1051, 1365, 1364
2137, 2250, 2299, 1383
2138, 866, 915, 867
2139, 339, 2248, 576
2140, 1453, 1455, 1454
2141, 2269, 2323, 1229
2142, 1573, 1609, 1571
2143, 326, 2185, 325
2144, 2284, 2312, 2282
2145, 2358, 2737, 676
2146, 636, 2707, 638
2147, 587, 2251, 352
2148, 139, 2252, 588
2149, 2345, 2348, 1197
2150, 911, 963, 892
2151, 867, 2249, 1383
2152, 337, 2253, 569
2153, 1574, 1576, 1575
2154, 2300, 2301, 556
2155, 1500, 2322, 2228
2156, 154, 2260, 573
2157, 2255, 2806, 1184
2158, 1357, 1734, 1733
2159, 569, 2261, 336
2160, 158, 570, 157
2161, 2314, 2770, 2317
2162, 369, 2530, 368
2163, 1572, 1573, 1571
2164, 1465, 2691, 1467
2165, 1184, 1185, 1183
2166, 1445, 2276, 1447
2167, 2477, 2478, 461
2168, 2390, 2747, 2386
2169, 357, 513, 356
2170, 135, 514, 134
2171, 1055, 1851, 1060
2172, 1451, 1453, 1452
2173, 1179, 2694, 2298
2174, 75, 2552, 74
2175, 494, 2552, 75
2176, 2536, 2545, 2543
2177, 1461, 1462, 1460
2178, 1551, 2311, 1549
2179, 802, 2774, 752
2180, 2329, 2669, 978
2181, 2538, 2541, 2539
2182, 553, 2537, 2536
2183, 1570, 1571, 1569
2184, 1042, 2690, 1382
2185, 169, 2280, 468
2186, 148, 591, 147
2187, 762, 824, 823
2188, 755, 2299, 753
2189, 346, 590, 345
2190, 146, 589, 145
2191, 343, 586, 342
2192, 1235, 2381, 1124
2193, 1196, 2256, 2255
2194, 2271, 2748, 2272
2195, 946, 966, 965
2196, 150, 584, 149
2197, 348, 582, 347
2198, 144, 583, 143
2199, 2267, 2268, 938
2200, 341, 581, 340
2201, 1004, 2292, 2291
2202, 2713, 2756, 1765
2203, 785, 2362, 872
2204, 152, 580, 151
2205, 1457, 2296, 1459
2206, 351, 593, 350
2207, 141, 594, 140
2208, 2293, 2295, 2294
2209, 2380, 2381, 1235
2210, 2293, 2294, 988
2211, 339, 576, 338
2212, 938, 939, 916
2213, 1229, 2298, 2269
2214, 73, 2553, 455
2215, 1567, 2289, 1610
2216, 134, 2205, 133
2217, 2703, 2755, 990
2218, 1034, 2315, 1033
2219, 154, 573, 153
2220, 139, 588, 138
2221, 353, 587, 352
2222, 2575, 2576, 2574
2223, 2224, 2772, 2281
2224, 985, 2293, 988
2225, 370, 2521, 532
2226, 371, 2521, 370
2227, 1004, 2290, 1005
2228, 883, 1050, 882
2229, 335, 517, 334
2230, 337, 569, 336
2231, 2613, 2614, 557
2232, 115, 2541, 2538
2233, 1197, 2349, 1123
2234, 137, 575, 136
2235, 355, 574, 354
2236, 156, 566, 155
2237, 1003, 2297, 1659
2238, 2383, 2673, 2327
2239, 1226, 2758, 2311
2240, 2218, 2366, 1506
2241, 2538, 2539, 2537
2242, 2180, 2181, 523
2243, 999, 2292, 1000
2244, 2829, 2856, 801
2245, 2508, 2509, 2507
2246, 1361, 1362, 963
2247, 1503, 2270, 1449
2248, 2188, 2189, 722
2249, 2302, 2333, 2332
2250, 115, 2538, 114
2251, 964, 1374, 945
2252, 2315, 2316, 1033
2253, 2357, 2679, 2359
2254, 2552, 2553, 74
2255, 939, 940, 916
2256, 59, 516, 60
2257, 2358, 2740, 1747
2258, 1124, 2381, 1122
2259, 989, 2753, 2709
2260, 1571, 2244, 1569
2261, 660, 2792, 2295
2262, 822, 875, 821
2263, 2077, 2779, 1606
2264, 2304, 2336, 1557
2265, 171, 2481, 560
2266, 723, 2188, 722
2267, 2324, 2325, 1655
2268, 1024, 1769, 1661
2269, 2315, 2317, 2316
2270, 445, 2575, 2574
2271, 523, 2197, 219
2272, 1569, 2289, 1567
2273, 1449, 1451, 1450
2274, 2220, 2782, 662
2275, 1000, 2292, 1004
2276, 2368, 2378, 955
2277, 2471, 2473, 2472
2278, 2370, 2373, 2372
2279, 824, 882, 823
2280, 1577, 2213, 1575
2281, 216, 2300, 556
2282, 1180, 1182, 1181
2283, 1568, 1569, 1567
2284, 1024, 2290, 1769
2285, 2536, 2543, 2535
2286, 529, 2612, 2611
2287, 2223, 2311, 1551
2288, 2470, 2471, 491
2289, 111, 2546, 110
2290, 2350, 2747, 2390
2291, 170, 2280, 169
2292, 2306, 2336, 2304
2293, 1575, 2303, 1573
2294, 1459, 1460, 1458
2295, 2359, 2679, 680
2296, 2076, 2078, 2077
2297, 174, 2476, 173
2298, 2228, 2230, 2227
2299, 1005, 2290, 1024
2300, 110, 2546, 554
2301, 1186, 1187, 1185
2302, 735, 751, 734
2303, 1447, 1449, 1448
2304, 1447, 1503, 1449
2305, 1235, 2382, 2380
2306, 2469, 2471, 2470
2307, 136, 2243, 135
2308, 2597, 2599, 2598
2309, 1657, 1781, 1656
2310, 1567, 1610, 1565
2311, 176, 2470, 491
2312, 1635, 1636, 1633
2313, 1030, 2318, 1029
2314, 2382, 2717, 1751
2315, 1566, 1567, 1565
2316, 553, 2536, 2535
2317, 790, 1663, 788
2318, 147, 2237, 146
2319, 347, 2239, 346
2320, 149, 2238, 148
2321, 145, 2240, 144
2322, 342, 2241, 341
2323, 116, 2541, 115
2324, 1505, 2276, 1445
2325, 340, 2248, 339
2326, 2377, 2719, 1433
2327, 1635, 2217, 1636
2328, 1445, 1447, 1446
2329, 1549, 2311, 1748
2330, 678, 2673, 2383
2331, 140, 2252, 139
2332, 352, 2251, 351
2333, 2543, 2544, 447
2334, 338, 2253, 337
2335, 356, 2242, 355
2336, 1564, 1565, 1563
2337, 1003, 1659, 921
2338, 2316, 2757, 2320
2339, 2548, 2549, 446
2340, 2263, 2326, 1641
2341, 1773, 2183, 1750
2342, 746, 749, 747
2343, 741, 743, 742
2344, 1457, 1458, 1456
2345, 336, 2261, 335
2346, 2301, 2302, 556
2347, 1228, 2735, 2365
2348, 549, 2508, 2507
2349, 155, 2260, 154
2350, 1451, 2322, 1453
2351, 2318, 2319, 1029
2352, 1176, 2308, 1178
2353, 664, 2781, 2221
2354, 2313, 2314, 1037
2355, 762, 2233, 824
2356, 1767, 2926, 2050
2357, 2349, 2712, 1125
2358, 753, 2288, 715
2359, 560, 2280, 170
2360, 984, 2293, 985
2361, 1195, 1219, 1193
2362, 1187, 2835, 1263
2363, 1631, 1633, 1632
2364, 1443, 1505, 1445
2365, 1658, 2297, 1003
2366, 1443, 2366, 1505
2367, 2471, 2472, 491
2368, 2401, 2714, 2396
2369, 1609, 2245, 2244
2370, 1038, 2313, 1037
2371, 921, 2324, 910
2372, 1020, 1689, 1019
2373, 1048, 1049, 1047
2374, 1505, 2278, 2276
2375, 825, 884, 826
2376, 1049, 1750, 1386
2377, 2507, 2509, 469
2378, 1561, 2312, 1611
2379, 757, 2326, 866
2380, 638, 2707, 783
2381, 1063, 2859, 2784
2382, 878, 2321, 854
2383, 1131, 2388, 1204
2384, 1505, 2366, 2279
2385, 1182, 1183, 1181
2386, 720, 2760, 721
2387, 1049, 1773, 1750
2388, 1178, 1180, 1179
2389, 1753, 2295, 2293
2390, 1204, 2388, 2387
2391, 2574, 2576, 544
2392, 175, 2474, 174
2393, 2318, 2320, 2319
2394, 1482, 1483, 1481
2395, 2472, 2475, 2474
2396, 2272, 2328, 1385
2397, 2321, 2327, 854
2398, 1656, 2379, 832
2399, 985, 988, 987
2400, 2747, 2754, 1427
2401, 823, 2378, 809
2402, 2323, 2724, 1637
2403, 792, 2813, 624
2404, 2328, 2329, 978
2405, 1748, 2758, 2364
2406, 2597, 2598, 2596
2407, 2309, 2310, 2308
2408, 2187, 2719, 2377
2409, 931, 1656, 832
2410, 1545, 2365, 1543
2411, 2338, 2771, 666
2412, 1631, 1634, 1633
2413, 1553, 2336, 2224
2414, 1220, 2398, 1134
2415, 2347, 2352, 2342
2416, 996, 2720, 1761
2417, 982, 984, 983
2418, 1565, 2282, 1563
2419, 2308, 2711, 1178
2420, 1046, 1047, 1044
2421, 2351, 2751, 2344
2422, 1042, 1382, 1041
2423, 866, 2326, 917
2424, 1180, 1196, 1182
2425, 172, 2481, 171
2426, 1563, 2312, 1561
2427, 443, 2561, 2560
2428, 984, 985, 983
2429, 1562, 1563, 1561
2430, 1753, 2293, 984
2431, 2387, 2389, 1204
2432, 777, 2357, 779
2433, 1385, 2328, 973
2434, 1634, 1635, 1633
2435, 1635, 2331, 2217
2436, 2397, 2398, 1220
2437, 1384, 1753, 984
2438, 720, 721, 719
2439, 1778, 1779, 1013
2440, 1443, 1445, 1444
2441, 2347, 2353, 2352
2442, 1453, 1454, 1452
2443, 1440, 1441, 1439
2444, 2272, 2329, 2328
2445, 1570, 1572, 1571
2446, 1037, 2315, 1034
2447, 2321, 2383, 2327
2448, 1130, 2388, 1131
2449, 1382, 2220, 1745
2450, 2269, 2724, 2323
2451, 721, 722, 719
2452, 832, 2379, 790
2453, 1506, 2366, 1441
2454, 2348, 2349, 1197
2455, 217, 2300, 216
2456, 783, 2362, 785
2457, 1046, 1048, 1047
2458, 1572, 1574, 1573
2459, 1561, 1611, 1559
2460, 443, 2560, 2559
2461, 2388, 2390, 2386
2462, 757, 758, 755
2463, 2363, 2365, 1545
2464, 915, 938, 916
2465, 775, 2327, 773
2466, 1560, 1561, 1559
2467, 2464, 2466, 2465
2468, 1049, 1386, 1047
2469, 1128, 2714, 2401
2470, 554, 2562, 109
2471, 1335, 2775, 1822
2472, 1761, 2720, 2709
2473, 818, 2356, 865
2474, 715, 2288, 717
2475, 2813, 2814, 620
2476, 1180, 1181, 1179
2477, 1558, 1559, 1557
2478, 1440, 1506, 1441
2479, 818, 2357, 2356
2480, 1743, 2218, 1506
2481, 672, 2748, 2271
2482, 1637, 2408, 2323
2483, 1437, 1440, 1439
2484, 177, 2470, 176
2485, 1133, 2391, 1135
2486, 2535, 2543, 447
2487, 1838, 2263, 1641
2488, 1543, 2365, 1749
2489, 1608, 2214, 2213
2490, 2367, 2406, 895
2491, 1176, 1178, 1177
2492, 784, 2752, 782
2493, 2466, 2467, 457
2494, 1750, 2194, 1386
2495, 2332, 2333, 440
2496, 30, 567, 31
2497, 38, 568, 39
2498, 1672, 2814, 2813
2499, 998, 2756, 2713
2500, 2334, 2375, 2374
2501, 1659, 2324, 921
2502, 1026, 2665, 2423
2503, 553, 2538, 2537
2504, 2465, 2466, 457
2505, 1026, 2423, 2421
2506, 2359, 2737, 2355
2507, 758, 2299, 755
2508, 2210, 2212, 2211
2509, 1441, 1443, 1442
2510, 1138, 2400, 1136
2511, 2671, 2698, 2411
2512, 559, 2597, 2596
2513, 2272, 2330, 2329
2514, 854, 2327, 775
2515, 1235, 2717, 2382
2516, 1220, 2399, 2397
2517, 2354, 2358, 1747
2518, 1040, 1041, 1038
2519, 1033, 2318, 1030
2520, 1040, 1042, 1041
2521, 668, 2759, 2330
2522, 982, 983, 981
2523, 757, 866, 758
2524, 1199, 2308, 1176
2525, 1425, 2341, 2340
2526, 2649, 2662, 1643
2527, 779, 2357, 818
2528, 1134, 2398, 1132
2529, 2596, 2598, 472
2530, 1967, 1969, 1968
2531, 1958, 1959, 1957
2532, 1553, 2224, 2223
2533, 2567, 2568, 484
2534, 1539, 2382, 1537
2535, 1610, 2283, 2282
2536, 1199, 2309, 2308
2537, 2342, 2352, 2341
2538, 1000, 1004, 1002
2539, 1763, 2755, 2703
2540, 777, 2679, 2357
2541, 2474, 2476, 174
2542, 1178, 1179, 1177
2543, 1382, 1745, 1041
2544, 1447, 1448, 1446
2545, 1749, 2735, 2381
2546, 318, 2547, 317
2547, 544, 2547, 318
2548, 2467, 2469, 2468
2549, 1559, 2304, 1557
2550, 1386, 2690, 1047
2551, 785, 872, 842
2552, 2374, 2375, 552
2553, 2341, 2352, 2340
2554, 2357, 2359, 2356
2555, 1437, 1439, 1438
2556, 982, 1384, 984
2557, 809, 2378, 895
2558, 1564, 1566, 1565
2559, 979, 982, 981
2560, 2865, 2870, 652
2561, 2257, 2258, 2256
2562, 2421, 2667, 1026
2563, 2339, 2680, 861
2564, 1455, 1456, 1454
2565, 2416, 2701, 2663
2566, 1568, 1570, 1569
2567, 1036, 1037, 1034
2568, 178, 2468, 177
2569, 1557, 2336, 1554
2570, 895, 2406, 1752
2571, 2302, 2332, 556
2572, 2313, 2338, 2314
2573, 972, 1385, 973
2574, 2323, 2408, 2360
2575, 1175, 2360, 1173
2576, 1384, 2221, 1753
2577, 2339, 2667, 2421
2578, 2580, 2581, 485
2579, 995, 2695, 2632
2580, 1044, 2690, 1042
2581, 316, 2548, 446
2582, 1036, 1038, 1037
2583, 1434, 2377, 1431
2584, 1320, 2766, 1803
2585, 1029, 2321, 878
2586, 920, 921, 910
2587, 1552, 1553, 1551
2588, 1433, 1437, 1436
2589, 992, 2662, 2649
2590, 884, 1015, 885
2591, 992, 2649, 2361
2592, 1384, 2669, 2222
2593, 1641, 2326, 858
2594, 1451, 1452, 1450
2595, 985, 987, 986
2596, 2380, 2382, 1539
2597, 2286, 2690, 1386
2598, 2271, 2272, 1385
2599, 2319, 2743, 2383
2600, 973, 2328, 975
2601, 999, 2633, 2292
2602, 1429, 2340, 1434
2603, 1553, 2223, 1551
2604, 2472, 2474, 491
2605, 710, 2699, 2693
2606, 1441, 2366, 1443
2607, 381, 2518, 380
2608, 472, 2518, 381
2609, 2406, 2648, 1752
2610, 1043, 1044, 1042
2611, 2463, 2464, 548
2612, 982, 2669, 1384
2613, 1204, 2391, 1133
2614, 2224, 2281, 2223
2615, 1423, 2341, 1425
2616, 1556, 1557, 1554
2617, 1005, 1024, 1023
2618, 1640, 1641, 858
2619, 2709, 2753, 1761
2620, 2547, 2548, 317
2621, 1537, 2382, 1751
2622, 717, 719, 718
2623, 715, 717, 716
2624, 1747, 2271, 1385
2625, 487, 2606, 2605
2626, 1431, 1433, 1432
2627, 2264, 2265, 2263
2628, 2458, 2460, 2459
2629, 1032, 1033, 1030
2630, 975, 2328, 978
2631, 2411, 2412, 1246
2632, 109, 2562, 108
2633, 698, 2660, 2394
2634, 2076, 2077, 1606
2635, 805, 2774, 802
2636, 2391, 2698, 2671
2637, 975, 978, 977
2638, 1969, 1971, 1970
2639, 1960, 1961, 1959
2640, 379, 2519, 549
2641, 1136, 2400, 1220
2642, 1554, 2336, 1553
2643, 1633, 2273, 1632
2644, 1429, 1434, 1431
2645, 179, 2465, 457
2646, 858, 2326, 757
2647, 2526, 2527, 2523
2648, 2394, 2660, 2420
2649, 2327, 2673, 773
2650, 212, 2374, 552
2651, 2462, 2463, 548
2652, 717, 2288, 720
2653, 717, 718, 716
2654, 972, 973, 971
2655, 1032, 1034, 1033
2656, 1629, 1631, 1630
2657, 2361, 2648, 992
2658, 1752, 2648, 2361
2659, 1130, 2390, 2388
2660, 2419, 2684, 1419
2661, 1611, 2305, 2304
2662, 1180, 2711, 1196
2663, 556, 2332, 215
2664, 215, 2332, 214
2665, 2518, 2519, 380
2666, 214, 2332, 440
2667, 1667, 2680, 2339
2668, 969, 972, 971
2669, 1174, 1176, 1175
2670, 74, 2553, 73
2671, 1301, 2683, 1303
2672, 1751, 2717, 2401
2673, 1838, 2264, 2263
2674, 895, 2378, 2367
2675, 2360, 2407, 1173
2676, 1176, 1177, 1175
2677, 2632, 2695, 1648
2678, 2355, 2358, 2354
2679, 1246, 2671, 2411
2680, 1550, 1551, 1549
2681, 2391, 2671, 1135
2682, 371, 2526, 2521
2683, 1558, 1560, 1559
2684, 1562, 1564, 1563
2685, 2404, 2661, 700
2686, 1028, 1029, 878
2687, 1609, 2244, 1571
2688, 1138, 2663, 2400
2689, 1425, 2340, 1429
2690, 1566, 1568, 1567
2691, 1429, 1431, 1430
2692, 968, 2354, 969
2693, 968, 969, 880
2694, 861, 2667, 2339
2695, 2096, 2819, 815
2696, 2387, 2443, 2389
2697, 2413, 2654, 2412
2698, 1431, 2377, 1433
2699, 2412, 2654, 1246
2700, 972, 2354, 1747
2701, 2316, 2318, 1033
2702, 2663, 2701, 2400
2703, 1028, 1030, 1029
2704, 2333, 2334, 440
2705, 838, 2617, 780
2706, 1445, 1446, 1444
2707, 1041, 2313, 1038
2708, 874, 999, 924
2709, 1549, 1748, 1547
2710, 865, 968, 880
2711, 1449, 1450, 1448
2712, 2458, 2459, 2457
2713, 718, 760, 759
2714, 2323, 2360, 1229
2715, 978, 979, 977
2716, 767, 2420, 765
2717, 1224, 2417, 2416
2718, 2413, 2430, 1201
2719, 1012, 1013, 830
2720, 1426, 2341, 1423
2721, 1425, 1429, 1428
2722, 1548, 1549, 1547
2723, 1441, 1442, 1439
2724, 968, 2355, 2354
2725, 969, 2354, 972
2726, 2367, 2378, 2368
2727, 471, 2483, 2482
2728, 1201, 2654, 2413
2729, 313, 2567, 484
2730, 314, 2567, 313
2731, 972, 1747, 1385
2732, 2346, 2684, 2419
2733, 2420, 2660, 765
2734, 865, 2356, 968
2735, 1024, 1661, 1025
2736, 1423, 1425, 1424
2737, 2693, 2699, 2649
2738, 1258, 1262, 1261
2739, 2389, 2391, 1204
2740, 1546, 1547, 1545
2741, 1045, 1046, 1044
2742, 2367, 2368, 1742
2743, 783, 2707, 2362
2744, 1552, 1554, 1553
2745, 1174, 1199, 1176
2746, 2608, 2609, 2607
2747, 2319, 2321, 1029
2748, 1229, 2360, 1175
2749, 446, 2569, 315
2750, 2404, 2682, 2403
2751, 443, 2559, 107
2752, 107, 2559, 106
2753, 717, 720, 719
2754, 780, 2617, 778
2755, 2571, 2573, 2572
2756, 2468, 2470, 177
2757, 2467, 2468, 457
2758, 2344, 2347, 2342
2759, 713, 2384, 711
2760, 180, 2465, 179
2761, 1556, 1558, 1557
2762, 1421, 1426, 1423
2763, 973, 975, 974
2764, 1426, 2342, 2341
2765, 466, 2608, 2607
2766, 2389, 2443, 2409
2767, 2399, 2414, 2397
2768, 955, 2378, 823
2769, 1631, 1632, 1630
2770, 2416, 2663, 1224
2771, 213, 2374, 212
2772, 439, 2458, 2457
2773, 189, 2495, 188
2774, 1415, 2385, 1427
2775, 978, 2669, 979
2776, 105, 2563, 487
2777, 314, 2569, 2567
2778, 491, 2474, 175
2779, 2396, 2714, 2398
2780, 1550, 1552, 1551
2781, 2405, 2661, 2404
2782, 1507, 1743, 1506
2783, 2393, 2688, 2394
2784, 2314, 2317, 2315
2785, 1224, 2647, 2417
2786, 1560, 1562, 1561
2787, 1245, 2441, 2418
2788, 2407, 2687, 1225
2789, 2370, 2372, 2371
2790, 2417, 2647, 2418
2791, 818, 865, 864
2792, 1421, 1423, 1422
2793, 182, 2482, 2462
2794, 1220, 2400, 2399
2795, 2457, 2459, 545
2796, 2559, 2563, 106
2797, 1544, 1545, 1543
2798, 1433, 1436, 1432
2799, 1642, 1838, 1641
2800, 1547, 2363, 1545
2801, 922, 1003, 921
2802, 2430, 2643, 1201
2803, 2316, 2320, 2318
2804, 312, 2603, 311
2805, 484, 2603, 312
2806, 2395, 2396, 1612
2807, 918, 1782, 1692
2808, 1627, 1629, 1628
2809, 1649, 1760, 993
2810, 2429, 2643, 2430
2811, 1007, 1658, 1003
2812, 701, 2661, 704
2813, 1543, 1749, 1541
2814, 2402, 2403, 989
2815, 1631, 2724, 1634
2816, 2348, 2350, 2349
2817, 310, 2604, 441
2818, 1419, 1421, 1420
2819, 79, 2517, 454
2820, 80, 2517, 79
2821, 465, 2492, 2491
2822, 1532, 2395, 1612
2823, 2418, 2647, 1245
2824, 114, 2538, 553
2825, 1413, 2385, 1415
2826, 540, 2495, 189
2827, 1748, 2364, 2363
2828, 533, 2488, 2487
2829, 834, 2420, 767
2830, 1417, 1419, 1418
2831, 465, 2491, 2490
2832, 1636, 2273, 1633
2833, 543, 2573, 2571
2834, 841, 2402, 989
2835, 1540, 1541, 1539
2836, 388, 2579, 387
2837, 450, 2579, 388
2838, 1542, 1543, 1541
2839, 1629, 1630, 1628
2840, 2603, 2604, 311
2841, 2186, 2234, 1743
2842, 1745, 2338, 2313
2843, 2368, 2370, 2369
2844, 764, 2405, 770
2845, 2319, 2383, 2321
2846, 1427, 2419, 1417
2847, 1244, 2643, 2429
2848, 181, 2462, 548
2849, 182, 2462, 181
2850, 2399, 2434, 2414
2851, 533, 2489, 2488
2852, 2429, 2431, 1244
2853, 2314, 2315, 1037
2854, 386, 2580, 485
2855, 1437, 1438, 1436
2856, 969, 971, 970
2857, 1415, 1427, 1417
2858, 1746, 2331, 1635
2859, 1546, 1548, 1547
2860, 935, 990, 857
2861, 990, 2393, 2392
2862, 2607, 2609, 558
2863, 1610, 2282, 1565
2864, 1640, 1642, 1641
2865, 2395, 2401, 2396
2866, 1425, 1428, 1424
2867, 2571, 2572, 448
2868, 1744, 2856, 2829
2869, 2368, 2369, 1742
2870, 2579, 2580, 387
2871, 85, 2589, 462
2872, 1740, 2406, 2367
2873, 2431, 2634, 1244
2874, 1642, 2678, 1838
2875, 2618, 2619, 1202
2876, 1342, 2666, 1917
2877, 2414, 2434, 1528
2878, 1611, 2304, 1559
2879, 841, 989, 905
2880, 2433, 2435, 1156
2881, 714, 753, 715
2882, 1740, 2367, 1742
2883, 2360, 2408, 2407
2884, 465, 2490, 187
2885, 1637, 2675, 2408
2886, 874, 2783, 999
2887, 1643, 2693, 2649
2888, 2433, 2634, 2431
2889, 865, 880, 879
2890, 1443, 1444, 1442
2891, 1415, 1417, 1416
2892, 2413, 2444, 2430
2893, 857, 2392, 834
2894, 1035, 1036, 1034
2895, 1538, 1539, 1537
2896, 2441, 2442, 2418
2897, 317, 2548, 316
2898, 820, 2402, 841
2899, 1508, 2385, 1413
2900, 2505, 2506, 433
2901, 1541, 2380, 1539
2902, 1245, 2638, 2441
2903, 1537, 1751, 1534
2904, 1548, 1550, 1549
2905, 1627, 1637, 1629
2906, 1031, 1032, 1030
2907, 2441, 2638, 2439
2908, 992, 2648, 967
2909, 1431, 1432, 1430
2910, 2402, 2405, 2404
2911, 990, 2392, 857
2912, 1646, 2720, 1766
2913, 700, 2661, 701
2914, 1749, 2381, 2380
2915, 1535, 1537, 1534
2916, 2410, 2412, 2411
2917, 1039, 1040, 1038
2918, 1413, 1415, 1414
2919, 2501, 2504, 2503
2920, 993, 2617, 838
2921, 188, 2495, 465
2922, 2513, 2514, 539
2923, 877, 878, 854
2924, 1405, 2410, 1509
2925, 1411, 1508, 1413
2926, 380, 2519, 379
2927, 676, 2740, 2358
2928, 2393, 2394, 2392
2929, 770, 2405, 820
2930, 779, 818, 817
2931, 1544, 1546, 1545
2932, 459, 2455, 2454
2933, 1411, 1413, 1412
2934, 1429, 1430, 1428
2935, 2503, 2504, 540
2936, 452, 2586, 90
2937, 2410, 2411, 1509
2938, 1173, 2407, 1171
2939, 1171, 2407, 1225
2940, 1508, 2386, 2385
2941, 1423, 1424, 1422
2942, 1533, 1534, 1532
2943, 183, 2482, 182
2944, 471, 2482, 183
2945, 2402, 2404, 2403
2946, 1411, 2443, 1508
2947, 853, 854, 775
2948, 2416, 2417, 2415
2949, 1419, 1420, 1418
2950, 1312, 2656, 1310
2951, 2408, 2687, 2407
2952, 1613, 2415, 1524
2953, 1276, 2065, 1687
2954, 86, 2589, 85
2955, 2397, 2414, 1612
2956, 2498, 2500, 2499
2957, 1156, 2634, 2433
2958, 1679, 2406, 1740
2959, 2438, 2439, 1227
2960, 2582, 2585, 2583
2961, 2440, 2442, 2441
2962, 1027, 1028, 878
2963, 2500, 2502, 2501
2964, 539, 2456, 303
2965, 1391, 2435, 2433
2966, 2499, 2500, 449
2967, 1417, 2419, 1419
2968, 447, 2546, 111
2969, 1613, 2416, 2415
2970, 1174, 1175, 1173
2971, 1508, 2443, 2387
2972, 1740, 1742, 1741
2973, 1403, 2410, 1405
2974, 1531, 1532, 1530
2975, 2430, 2444, 1511
2976, 1509, 2409, 1407
2977, 1534, 2395, 1532
2978, 1529, 1530, 1528
2979, 96, 2610, 95
2980, 464, 2610, 96
2981, 1532, 1612, 1530
2982, 2409, 2443, 1409
2983, 820, 841, 840
2984, 1409, 1411, 1410
2985, 2438, 2637, 1756
2986, 2439, 2638, 1227
2987, 1540, 1542, 1541
2988, 459, 2454, 2453
2989, 1172, 1174, 1173
2990, 2582, 2583, 492
2991, 187, 2490, 186
2992, 1407, 2409, 1409
2993, 2343, 2344, 2342
2994, 2500, 2501, 449
2995, 820, 2405, 2402
2996, 1151, 2436, 1153
2997, 2451, 2452, 550
2998, 1667, 2339, 1919
2999, 1625, 1627, 1626
3000, 457, 2468, 178
3001, 1524, 2415, 1522
3002, 1338, 2426, 1368
3003, 1421, 1422, 1420
3004, 2583, 2584, 492
3005, 2426, 2427, 1368
3006, 1538, 1540, 1539
3007, 2490, 2491, 2489
3008, 934, 935, 857
3009, 905, 1646, 1058
3010, 841, 905, 904
3011, 1227, 2637, 2438
3012, 192, 2499, 449
3013, 90, 2586, 89
3014, 315, 2569, 314
3015, 1751, 2401, 2395
3016, 1680, 1765, 935
3017, 87, 2587, 86
3018, 1407, 1409, 1408
3019, 1505, 2279, 2278
3020, 2345, 2351, 2344
3021, 1623, 1625, 1624
3022, 1530, 2414, 1528
3023, 1518, 2442, 2440
3024, 1417, 1418, 1416
3025, 1527, 1528, 1526
3026, 1405, 1407, 1406
3027, 1405, 1509, 1407
3028, 106, 2563, 105
3029, 190, 2503, 540
3030, 1755, 2687, 2675
3031, 1542, 1544, 1543
3032, 1644, 2680, 1667
3033, 2425, 2655, 2645
3034, 1510, 2410, 1403
3035, 2641, 2652, 1269
3036, 1391, 2433, 2432
3037, 1526, 2434, 1613
3038, 1403, 1405, 1404
3039, 1638, 2425, 2424
3040, 1276, 1687, 1274
3041, 1338, 1368, 1315
3042, 91, 2534, 452
3043, 92, 2534, 91
3044, 300, 2453, 2451
3045, 303, 2456, 302
3046, 1413, 1414, 1412
3047, 1646, 1766, 1647
3048, 2497, 2498, 2496
3049, 996, 1649, 993
3050, 1401, 1510, 1403
3051, 1156, 2436, 1151
3052, 2396, 2398, 2397
3053, 1526, 1613, 1524
3054, 1533, 1535, 1534
3055, 1510, 2412, 2410
3056, 1525, 1526, 1524
3057, 2584, 2588, 2587
3058, 1638, 2424, 1621
3059, 1401, 2444, 1510
3060, 1518, 2440, 1515
3061, 995, 1650, 997
3062, 871, 2695, 995
3063, 704, 2661, 764
3064, 1522, 2415, 1614
3065, 2428, 2429, 1511
3066, 530, 2497, 2496
3067, 311, 2604, 310
3068, 1638, 2651, 2425
3069, 1748, 2363, 1547
3070, 770, 820, 819
3071, 1391, 2432, 1392
3072, 1523, 1524, 1522
3073, 2396, 2397, 1612
3074, 1625, 1626, 1624
3075, 2594, 2595, 458
3076, 1401, 1403, 1402
3077, 2587, 2589, 86
3078, 193, 2499, 192
3079, 2387, 2388, 2386
3080, 1303, 2683, 1308
3081, 1397, 2428, 1511
3082, 2339, 2421, 1919
3083, 84, 2557, 83
3084, 462, 2557, 84
3085, 1522, 1614, 1520
3086, 1614, 2442, 1520
3087, 1166, 2618, 1168
3088, 1510, 2444, 2413
3089, 1529, 1531, 1530
3090, 2645, 2655, 1225
3091, 1168, 2618, 1202
3092, 2593, 2594, 458
3093, 2429, 2430, 1511
3094, 2418, 2442, 1614
3095, 2415, 2417, 1614
3096, 1749, 2380, 1541
3097, 1511, 2444, 1399
3098, 299, 2451, 550
3099, 300, 2451, 299
3100, 82, 2558, 490
3101, 967, 2648, 1679
3102, 1399, 1401, 1400
3103, 387, 2580, 386
3104, 1528, 2434, 1526
3105, 1756, 2637, 2626
3106, 1397, 1511, 1399
3107, 1166, 2620, 2618
3108, 1415, 1416, 1414
3109, 1521, 1522, 1520
3110, 1535, 1538, 1537
3111, 856, 857, 834
3112, 1208, 2620, 1164
3113, 1411, 1412, 1410
3114, 191, 2503, 190
3115, 2392, 2420, 834
3116, 1623, 1755, 1625
3117, 2557, 2558, 83
3118, 707, 2653, 709
3119, 1409, 2443, 1411
3120, 833, 834, 767
3121, 2436, 2641, 1153
3122, 1527, 1529, 1528
3123, 88, 2582, 492
3124, 89, 2582, 88
3125, 1397, 1399, 1398
3126, 714, 754, 753
3127, 1278, 2437, 1234
3128, 1395, 2428, 1397
3129, 2425, 2651, 2623
3130, 1627, 1628, 1626
3131, 2440, 2441, 2439
3132, 860, 992, 967
3133, 1519, 1520, 1518
3134, 871, 995, 959
3135, 2436, 2652, 2641
3136, 969, 970, 880
3137, 1756, 2626, 2437
3138, 1759, 2636, 2621
3139, 1405, 1406, 1404
3140, 1395, 1397, 1396
3141, 1281, 2437, 1278
3142, 1514, 2439, 2438
3143, 2435, 2436, 1156
3144, 1770, 1771, 1658
3145, 1639, 2625, 1640
3146, 1409, 1410, 1408
3147, 1621, 1623, 1622
3148, 3094, 3107, 2568
3149, 194, 2496, 193
3150, 530, 2496, 194
3151, 1531, 1533, 1532
3152, 1512, 2438, 1756
3153, 764, 2661, 2405
3154, 1751, 2395, 1534
3155, 2432, 2433, 2431
3156, 1623, 1624, 1622
3157, 301, 2453, 300
3158, 459, 2453, 301
3159, 1817, 2426, 1338
3160, 869, 993, 838
3161, 1403, 1404, 1402
3162, 1513, 1514, 1512
3163, 2428, 2432, 2431
3164, 1517, 1518, 1515
3165, 1514, 2438, 1512
3166, 1523, 1525, 1524
3167, 1392, 2432, 1395
3168, 1407, 1408, 1406
3169, 1515, 2440, 1514
3170, 1392, 1395, 1394
3171, 1389, 1391, 1390
3172, 1760, 2617, 993
3173, 2356, 2359, 2355
3174, 975, 977, 976
3175, 1514, 2440, 2439
3176, 1512, 1756, 1327
3177, 2621, 2636, 1468
3178, 1520, 2442, 1518
3179, 1389, 2435, 1391
3180, 1328, 1512, 1327
3181, 1399, 2444, 1401
3182, 1634, 1746, 1635
3183, 2425, 2645, 2424
3184, 1401, 1402, 1400
3185, 1399, 1400, 1398
3186, 1621, 2424, 1623
3187, 1525, 1527, 1526
3188, 1395, 1396, 1394
3189, 1397, 1398, 1396
3190, 1327, 2437, 1281
3191, 1521, 1523, 1522
3192, 1326, 1327, 1281
3193, 1517, 1519, 1518
3194, 979, 981, 980
3195, 754, 755, 753
3196, 1391, 1392, 1390
3197, 1519, 1521, 1520
3198, 1513, 1515, 1514
3199, 1271, 1389, 1273
3200, 2428, 2431, 2429
3201, 1761, 1762, 1649
3202, 1164, 2620, 1166
3203, 83, 2558, 82
3204, 1395, 2432, 2428
3205, 2590, 2591, 486
3206, 1326, 1328, 1327
3207, 1328, 1513, 1512
3208, 1389, 1390, 1273
3209, 2417, 2418, 1614
3210, 1615, 2616, 1616
3211, 1159, 1269, 1243
3212, 1756, 2437, 1327
3213, 1269, 1271, 1270
3214, 288, 2590, 287
3215, 287, 2590, 486
3216, 2437, 2626, 1234
3217, 442, 2592, 289
3218, 1616, 2616, 1619
3219, 288, 2592, 2590
3220, 1612, 2414, 1530
3221, 1619, 1638, 1621
3222, 1435, 2636, 1759
3223, 2584, 2587, 492
3224, 1706, 1707, 1322
3225, 289, 2592, 288
3226, 1667, 1919, 1918
3227, 492, 2587, 87
3228, 467, 2449, 275
3229, 279, 2484, 278
3230, 463, 2484, 279
3231, 275, 2449, 274
3232, 207, 2450, 206
3233, 206, 2450, 432
3234, 196, 2533, 195
3235, 400, 2485, 481
3236, 401, 2485, 400
3237, 483, 2510, 293
3238, 195, 2533, 530
3239, 283, 2551, 282
3240, 293, 2510, 292
3241, 104, 2605, 103
3242, 439, 2457, 392
3243, 101, 2486, 466
3244, 103, 2605, 538
3245, 392, 2457, 391
3246, 112, 2535, 447
3247, 413, 2611, 412
3248, 210, 2505, 433
3249, 460, 2551, 283
3250, 307, 2571, 306
3251, 113, 2535, 112
3252, 304, 2513, 539
3253, 97, 2550, 464
3254, 394, 2602, 393
3255, 102, 2486, 101
3256, 377, 2507, 469
3257, 185, 2487, 184
3258, 306, 2571, 448
3259, 529, 2611, 413
3260, 555, 2556, 118
3261, 537, 2461, 281
3262, 534, 2602, 394
3263, 305, 2513, 304
3264, 208, 2516, 528
3265, 308, 2515, 543
3266, 205, 2564, 204
3267, 441, 2515, 309
3268, 212, 552, 211
3269, 274, 2449, 527
3270, 378, 2507, 377
3271, 528, 2450, 207
3272, 432, 2564, 205
3273, 448, 2513, 305
3274, 119, 2601, 555
3275, 214, 440, 213
3276, 309, 2515, 308
3277, 302, 459, 301
3278, 384, 2520, 559
3279, 553, 2535, 113
3280, 190, 540, 189
3281, 287, 486, 286
3282, 292, 546, 291
3283, 184, 2487, 471
3284, 531, 2485, 401
3285, 282, 537, 281
3286, 292, 2510, 546
3287, 299, 550, 298
3288, 120, 2601, 119
3289, 201, 473, 200
3290, 276, 467, 275
3291, 169, 468, 168
3292, 412, 2611, 480
3293, 280, 463, 279
3294, 181, 548, 180
3295, 171, 560, 170
3296, 179, 457, 178
3297, 184, 471, 183
3298, 406, 536, 405
3299, 412, 480, 411
3300, 533, 2487, 185
3301, 118, 2556, 117
3302, 391, 2457, 545
3303, 278, 2484, 561
3304, 319, 2574, 544
3305, 434, 2533, 196
3306, 433, 2516, 209
3307, 98, 2550, 97
3308, 385, 2520, 384
3309, 320, 2574, 319
3310, 101, 466, 100
3311, 114, 553, 113
3312, 400, 481, 399
3313, 402, 531, 401
3314, 414, 529, 413
3315, 549, 2507, 378
3316, 94, 493, 93
3317, 437, 2570, 403
3318, 370, 532, 369
3319, 85, 462, 84
3320, 210, 433, 209
3321, 487, 2605, 104
3322, 211, 2505, 210
3323, 79, 454, 78
3324, 391, 545, 390
3325, 76, 494, 75
3326, 469, 2613, 376
3327, 209, 2516, 208
3328, 550, 2593, 298
3329, 216, 556, 215
3330, 103, 538, 102
3331, 373, 470, 372
3332, 82, 490, 81
3333, 204, 541, 203
3334, 282, 2551, 537
3335, 99, 558, 98
3336, 375, 557, 374
3337, 73, 455, 72
3338, 271, 453, 270
3339, 284, 460, 283
3340, 294, 483, 293
3341, 297, 458, 296
3342, 208, 528, 207
3343, 290, 442, 289
3344, 306, 448, 305
3345, 308, 543, 307
3346, 310, 441, 309
3347, 313, 484, 312
3348, 316, 446, 315
3349, 319, 544, 318
3350, 321, 445, 320
3351, 368, 456, 367
3352, 389, 450, 388
3353, 379, 549, 378
3354, 382, 472, 381
3355, 91, 452, 90
3356, 97, 464, 96
3357, 377, 469, 376
3358, 88, 492, 87
3359, 108, 443, 107
3360, 112, 447, 111
3361, 121, 444, 120
3362, 173, 461, 172
3363, 188, 465, 187
3364, 393, 439, 392
3365, 395, 534, 394
3366, 397, 438, 396
3367, 404, 437, 403
3368, 409, 436, 408
3369, 416, 435, 415
3370, 538, 2486, 102
3371, 278, 561, 277
3372, 386, 485, 385
3373, 105, 487, 104
3374, 444, 2601, 120
3375, 176, 491, 175
3376, 186, 533, 185
3377, 117, 2556, 451
3378, 543, 2571, 307
3379, 384, 559, 383
3380, 110, 554, 109
3381, 297, 2593, 458
3382, 192, 449, 191
3383, 304, 539, 303
3384, 119, 555, 118
3385, 274, 527, 273
3386, 383, 2596, 382
3387, 117, 451, 116
3388, 376, 2613, 375
3389, 393, 2602, 439
3390, 298, 2593, 297
3391, 375, 2613, 557
3392, 382, 2596, 472
3393, 559, 2596, 383
3394, 403, 2570, 402
3395, 197, 434, 196
3396, 206, 432, 205
3397, 218, 431, 217
3398, 204, 2564, 541
3399, 558, 2550, 98
3400, 195, 530, 194
3401, 199, 535, 198
3402, 445, 2574, 320
3403, 546, 2565, 291
3404, 485, 2520, 385
3405, 389, 2615, 450
3406, 545, 2615, 390
3407, 390, 2615, 389
3408, 402, 2570, 531
3409, 291, 2565, 290
3410, 552, 2505, 211
3411, 99, 2607, 558
3412, 290, 2565, 442
3413, 466, 2607, 100
3414, 281, 2461, 280
3415, 100, 2607, 99
3416, 280, 2461, 463
3417, 1146, 2638, 1245
3418, 1619, 2616, 1638
3419, 1273, 2627, 1272
3420, 2496, 2499, 193
3421, 1269, 1270, 1243
3422, 1168, 1202, 1170
3423, 1171, 1225, 1169
3424, 1163, 2622, 1161
3425, 1172, 1173, 1171
3426, 1170, 1172, 1171
3427, 1619, 1621, 1620
3428, 1271, 1273, 1272
3429, 1322, 2656, 1312
3430, 1679, 2648, 2406
3431, 861, 2680, 2676
3432, 1624, 2635, 1622
3433, 1170, 1171, 1169
3434, 1622, 1797, 1620
3435, 1168, 1170, 1169
3436, 1726, 1727, 1617
3437, 1727, 2628, 1617
3438, 1275, 1316, 1315
3439, 1621, 1622, 1620
3440, 1272, 2627, 1275
3441, 1165, 1221, 1163
3442, 1616, 1619, 1618
3443, 1168, 1169, 1167
3444, 1162, 1208, 1164
3445, 1280, 1281, 1278
3446, 1166, 1168, 1167
3447, 1316, 1339, 1338
3448, 1392, 1394, 1393
3449, 1619, 1620, 1618
3450, 820, 840, 819
3451, 1650, 1764, 1763
3452, 1221, 2622, 1163
3453, 1279, 1615, 1282
3454, 716, 2384, 713
3455, 1510, 2413, 2412
3456, 1166, 1167, 1165
3457, 1167, 2623, 1165
3458, 1325, 1326, 1281
3459, 1271, 1272, 1270
3460, 1616, 1617, 1282
3461, 1164, 1166, 1165
3462, 1726, 1864, 1727
3463, 1165, 2623, 1221
3464, 1618, 1726, 1617
3465, 2622, 2629, 1161
3466, 718, 759, 716
3467, 1435, 1759, 1758
3468, 1316, 1338, 1315
3469, 1159, 1243, 1160
3470, 1164, 1165, 1163
3471, 1155, 1159, 1158
3472, 1616, 1618, 1617
3473, 1275, 1315, 1276
3474, 1339, 1817, 1338
3475, 1615, 1616, 1282
3476, 1162, 1164, 1163
3477, 1797, 2624, 1620
3478, 1275, 1276, 1274
3479, 1759, 2621, 1935
3480, 1160, 1161, 1158
3481, 1392, 1393, 1390
3482, 1162, 1163, 1161
3483, 1516, 1517, 1515
3484, 1759, 1935, 1860
3485, 1160, 1162, 1161
3486, 1620, 2624, 1618
3487, 1272, 1275, 1274
3488, 1280, 1325, 1281
3489, 1159, 1160, 1158
3490, 1157, 1234, 1154
3491, 1618, 2624, 1726
3492, 1279, 1282, 1280
3493, 1860, 1912, 1861
3494, 1272, 1274, 1270
3495, 1277, 1278, 1234
3496, 2435, 2652, 2436
3497, 1275, 2627, 1316
3498, 1279, 1280, 1278
3499, 1154, 2626, 1152
3500, 1617, 2628, 1282
3501, 1860, 1861, 1758
3502, 1326, 1694, 1328
3503, 1159, 2641, 1269
3504, 1277, 1279, 1278
3505, 2498, 2499, 2496
3506, 1435, 1757, 1393
3507, 1759, 1860, 1758
3508, 1157, 1277, 1234
3509, 1513, 1516, 1515
3510, 1155, 1158, 1157
3511, 1394, 1435, 1393
3512, 1201, 2643, 1143
3513, 1234, 2626, 1154
3514, 1148, 2638, 1146
3515, 1145, 1244, 1147
3516, 1282, 2628, 1280
3517, 1273, 2630, 2627
3518, 1389, 2652, 2435
3519, 1155, 1157, 1154
3520, 1390, 2630, 1273
3521, 1280, 2628, 1325
3522, 1153, 1155, 1154
3523, 1435, 1758, 1757
3524, 1153, 2641, 1155
3525, 1149, 1156, 1151
3526, 1316, 2640, 1339
3527, 1861, 2650, 2644
3528, 1161, 2629, 1158
3529, 1146, 1245, 1144
3530, 2501, 2503, 449
3531, 1150, 1227, 1148
3532, 1393, 2630, 1390
3533, 1153, 1154, 1152
3534, 2630, 2640, 2627
3535, 1158, 2629, 1157
3536, 1516, 1984, 1517
3537, 1143, 2643, 1145
3538, 1157, 2629, 1277
3539, 1757, 2630, 1393
3540, 2421, 2423, 2422
3541, 1398, 1468, 1396
3542, 89, 2586, 2582
3543, 1151, 1153, 1152
3544, 1622, 2635, 1797
3545, 1142, 2647, 1224
3546, 1279, 2639, 1615
3547, 1328, 2631, 1513
3548, 1269, 2652, 1271
3549, 2622, 2639, 2629
3550, 1694, 2631, 1328
3551, 1823, 2635, 1624
3552, 1757, 2640, 2630
3553, 1151, 1152, 1150
3554, 1513, 2631, 1516
3555, 2588, 2589, 2587
3556, 1149, 1151, 1150
3557, 860, 967, 936
3558, 1394, 2636, 1435
3559, 1244, 2634, 1147
3560, 459, 2456, 2455
3561, 1149, 1150, 1148
3562, 2626, 2637, 1152
3563, 967, 1679, 1678
3564, 2639, 2646, 1615
3565, 1396, 2636, 1394
3566, 2582, 2586, 2585
3567, 2629, 2639, 1277
3568, 1144, 2647, 1142
3569, 1147, 1149, 1148
3570, 1508, 2387, 2386
3571, 1519, 1903, 1521
3572, 995, 2632, 1650
3573, 2644, 2650, 1339
3574, 2623, 2655, 2425
3575, 1861, 2644, 1758
3576, 1277, 2639, 1279
3577, 1149, 2634, 1156
3578, 1615, 2646, 2616
3579, 1639, 1640, 858
3580, 1150, 2637, 1227
3581, 1155, 2641, 1159
3582, 709, 2653, 712
3583, 1227, 2638, 1148
3584, 1402, 1476, 1400
3585, 1141, 1201, 1143
3586, 1468, 2636, 1396
3587, 1623, 2424, 1755
3588, 1167, 2655, 2623
3589, 712, 2642, 714
3590, 2627, 2640, 1316
3591, 841, 904, 840
3592, 1147, 1148, 1146
3593, 1225, 2655, 1169
3594, 465, 2495, 2492
3595, 1152, 2637, 1150
3596, 1679, 1740, 1739
3597, 860, 2662, 992
3598, 2622, 2646, 2639
3599, 1523, 1696, 1525
3600, 1419, 2684, 1421
3601, 1147, 2634, 1149
3602, 449, 2503, 191
3603, 2616, 2651, 1638
3604, 1145, 2643, 1244
3605, 1626, 1823, 1624
3606, 2646, 2651, 2616
3607, 1145, 1147, 1146
3608, 1010, 1732, 1731
3609, 768, 860, 859
3610, 2640, 2644, 1339
3611, 715, 716, 713
3612, 1142, 1224, 1140
3613, 1758, 2644, 1757
3614, 1221, 2646, 2622
3615, 2676, 2680, 2625
3616, 1145, 1146, 1144
3617, 2424, 2645, 1755
3618, 1245, 2647, 1144
3619, 1221, 2651, 2646
3620, 1143, 1145, 1144
3621, 1757, 2644, 2640
3622, 1644, 1667, 1666
3623, 1636, 2275, 2273
3624, 756, 1639, 858
3625, 1634, 2724, 2269
3626, 1271, 2652, 1389
3627, 2623, 2651, 1221
3628, 700, 2682, 2404
3629, 1339, 2650, 1817
3630, 1406, 1478, 1404
3631, 985, 986, 983
3632, 714, 715, 713
3633, 1433, 2719, 1437
3634, 1143, 1144, 1142
3635, 1137, 1246, 1139
3636, 905, 1058, 904
3637, 2305, 2306, 2304
3638, 1141, 1143, 1142
3639, 973, 974, 971
3640, 1410, 1475, 1408
3641, 934, 1680, 935
3642, 302, 2456, 459
3643, 1639, 2674, 2625
3644, 1169, 2655, 1167
3645, 2394, 2420, 2392
3646, 760, 761, 759
3647, 712, 714, 713
3648, 1141, 1142, 1140
3649, 704, 764, 706
3650, 1342, 1917, 1916
3651, 763, 765, 702
3652, 833, 856, 834
3653, 712, 713, 711
3654, 1667, 1918, 1666
3655, 1139, 1141, 1140
3656, 1646, 1647, 1058
3657, 709, 712, 711
3658, 2421, 2422, 1919
3659, 1752, 1754, 894
3660, 1136, 1220, 1134
3661, 1141, 2654, 1201
3662, 1177, 1229, 1175
3663, 1918, 1920, 1666
3664, 712, 2653, 2642
3665, 707, 708, 705
3666, 764, 770, 769
3667, 756, 757, 755
3668, 1139, 1140, 1138
3669, 706, 707, 705
3670, 1740, 1741, 1739
3671, 1529, 1857, 1531
3672, 2394, 2688, 698
3673, 979, 2669, 982
3674, 1246, 2654, 1139
3675, 1137, 1139, 1138
3676, 1323, 2064, 1717
3677, 711, 2689, 710
3678, 709, 711, 710
3679, 2245, 2246, 2244
3680, 1640, 2625, 1644
3681, 1680, 1785, 1765
3682, 1752, 2361, 1754
3683, 1707, 2656, 1322
3684, 764, 769, 706
3685, 860, 936, 859
3686, 771, 991, 769
3687, 1666, 2678, 1642
3688, 1139, 2654, 1141
3689, 856, 934, 857
3690, 1533, 1536, 1535
3691, 996, 1761, 1649
3692, 760, 762, 761
3693, 186, 2490, 533
3694, 1137, 1138, 1136
3695, 967, 1678, 936
3696, 766, 767, 765
3697, 818, 864, 817
3698, 1140, 2663, 1138
3699, 869, 996, 993
3700, 2675, 2687, 2408
3701, 1679, 1739, 1678
3702, 1626, 2658, 1823
3703, 770, 819, 771
3704, 1135, 1137, 1136
3705, 1131, 1204, 1133
3706, 1643, 2662, 766
3707, 766, 2662, 768
3708, 1135, 1136, 1134
3709, 1628, 2658, 1626
3710, 2642, 2668, 754
3711, 770, 771, 769
3712, 819, 861, 771
3713, 707, 2659, 2653
3714, 709, 710, 708
3715, 1766, 1834, 1647
3716, 533, 2490, 2489
3717, 763, 766, 765
3718, 1426, 2343, 2342
3719, 1133, 1135, 1134
3720, 768, 833, 767
3721, 1127, 1130, 1129
3722, 865, 879, 864
3723, 1650, 1763, 997
3724, 704, 705, 703
3725, 704, 706, 705
3726, 714, 2642, 754
3727, 768, 2662, 860
3728, 707, 709, 708
3729, 2478, 2481, 461
3730, 763, 1643, 766
3731, 703, 763, 702
3732, 1755, 2675, 1625
3733, 756, 858, 757
3734, 1131, 1132, 1129
3735, 995, 997, 959
3736, 766, 768, 767
3737, 936, 1353, 859
3738, 1133, 1134, 1132
3739, 768, 859, 833
3740, 701, 704, 703
3741, 1416, 1486, 1414
3742, 1135, 2671, 1137
3743, 2668, 2677, 2674
3744, 2384, 2689, 711
3745, 1130, 1131, 1129
3746, 759, 2384, 716
3747, 1313, 1681, 1369
3748, 895, 1752, 894
3749, 705, 2657, 703
3750, 1739, 1928, 1678
3751, 1131, 1133, 1132
3752, 706, 2659, 707
3753, 701, 702, 699
3754, 904, 1026, 840
3755, 697, 700, 699
3756, 699, 2660, 698
3757, 991, 2659, 769
3758, 708, 2657, 705
3759, 2689, 2699, 710
3760, 765, 2660, 702
3761, 856, 1645, 934
3762, 1323, 1717, 1706
3763, 2469, 2470, 2468
3764, 1681, 2066, 1369
3765, 703, 2657, 763
3766, 769, 2659, 706
3767, 701, 703, 702
3768, 1323, 1706, 1322
3769, 754, 756, 755
3770, 697, 698, 695
3771, 1630, 1856, 1628
3772, 1314, 1322, 1312
3773, 1627, 2675, 1637
3774, 2370, 2371, 2369
3775, 697, 699, 698
3776, 693, 696, 695
3777, 702, 2660, 699
3778, 1224, 2663, 1140
3779, 1040, 1043, 1042
3780, 2273, 2274, 1632
3781, 1225, 2687, 2645
3782, 1440, 1507, 1506
3783, 819, 2667, 861
3784, 1644, 1666, 1642
3785, 756, 2668, 1639
3786, 2400, 2701, 2399
3787, 763, 2657, 1643
3788, 1126, 1235, 1124
3789, 754, 2668, 756
3790, 2343, 2345, 2344
3791, 1127, 1129, 1128
3792, 1647, 1828, 1058
3793, 696, 697, 695
3794, 2685, 2689, 2384
3795, 853, 877, 854
3796, 2475, 2476, 2474
3797, 840, 2667, 819
3798, 833, 2664, 856
3799, 1047, 2690, 1044
3800, 1353, 2664, 859
3801, 1028, 1031, 1030
3802, 1540, 1728, 1542
3803, 700, 701, 699
3804, 1314, 1323, 1322
3805, 2399, 2701, 2434
3806, 1420, 1491, 1418
3807, 859, 2664, 833
3808, 1856, 2658, 1628
3809, 2283, 2284, 2282
3810, 1729, 2033, 1989
3811, 1313, 1369, 1314
3812, 1026, 2667, 840
3813, 1680, 1927, 1785
3814, 968, 2356, 2355
3815, 762, 823, 809
3816, 1127, 1128, 1126
3817, 689, 692, 691
3818, 856, 2664, 1645
3819, 2464, 2465, 548
3820, 1760, 2702, 2617
3821, 809, 895, 894
3822, 1754, 2689, 2685
3823, 1308, 1688, 1682
3824, 684, 777, 686
3825, 687, 688, 685
3826, 771, 2676, 991
3827, 868, 869, 838
3828, 991, 2677, 2659
3829, 1121, 1197, 1123
3830, 2659, 2677, 2653
3831, 2411, 2698, 1509
3832, 1125, 1127, 1126
3833, 1137, 2671, 1246
3834, 2674, 2677, 991
3835, 2642, 2677, 2668
3836, 1613, 2701, 2416
3837, 1058, 2665, 904
3838, 2346, 2348, 2345
3839, 1313, 1314, 1312
3840, 1765, 2703, 935
3841, 1625, 2675, 1627
3842, 1125, 1126, 1124
3843, 2674, 2676, 2625
3844, 2389, 2698, 2391
3845, 868, 951, 869
3846, 868, 1359, 951
3847, 904, 2665, 1026
3848, 877, 1027, 878
3849, 1123, 1125, 1124
3850, 2401, 2717, 1128
3851, 1544, 1703, 1546
3852, 2409, 2698, 2389
3853, 690, 2733, 2725
3854, 871, 959, 958
3855, 686, 687, 685
3856, 1815, 1816, 948
3857, 693, 695, 694
3858, 1828, 2665, 1058
3859, 759, 2685, 2384
3860, 697, 2682, 700
3861, 710, 2693, 708
3862, 689, 691, 690
3863, 698, 2688, 695
3864, 2656, 2706, 1310
3865, 997, 998, 959
3866, 991, 2676, 2674
3867, 894, 2685, 761
3868, 837, 838, 780
3869, 693, 694, 691
3870, 772, 773, 682
3871, 1032, 1035, 1034
3872, 1421, 2684, 1426
3873, 1359, 1872, 1704
3874, 1872, 1875, 1704
3875, 692, 693, 691
3876, 1424, 1498, 1422
3877, 1442, 2716, 1439
3878, 1426, 2684, 2343
3879, 1311, 1313, 1312
3880, 1359, 1704, 951
3881, 776, 871, 870
3882, 861, 2676, 771
3883, 2343, 2346, 2345
3884, 809, 894, 761
3885, 2625, 2680, 1644
3886, 777, 779, 778
3887, 1123, 1124, 1122
3888, 761, 2685, 759
3889, 1383, 2299, 758
3890, 2668, 2674, 1639
3891, 696, 2682, 697
3892, 1688, 1788, 1682
3893, 2653, 2677, 2642
3894, 1834, 2670, 1647
3895, 1130, 2712, 2390
3896, 837, 868, 838
3897, 1036, 1039, 1038
3898, 1647, 2670, 1828
3899, 779, 817, 780
3900, 689, 690, 688
3901, 777, 778, 686
3902, 2343, 2684, 2346
3903, 1311, 1312, 1310
3904, 774, 775, 773
3905, 1121, 1123, 1122
3906, 1120, 1228, 1118
3907, 1815, 1882, 1816
3908, 687, 689, 688
3909, 684, 686, 685
3910, 440, 2374, 213
3911, 762, 809, 761
3912, 905, 2709, 1646
3913, 958, 1340, 870
3914, 1745, 2313, 1041
3915, 548, 2465, 180
3916, 2645, 2687, 1755
3917, 2722, 2728, 692
3918, 1115, 1200, 1117
3919, 684, 685, 683
3920, 681, 684, 683
3921, 2649, 2699, 2361
3922, 817, 837, 780
3923, 681, 682, 679
3924, 776, 853, 775
3925, 677, 680, 679
3926, 1729, 1819, 1340
3927, 695, 2688, 694
3928, 879, 2666, 1342
3929, 975, 976, 974
3930, 1920, 2678, 1666
3931, 772, 1648, 774
3932, 1121, 1122, 1120
3933, 1548, 1697, 1550
3934, 1729, 1989, 1819
3935, 779, 780, 778
3936, 871, 958, 870
3937, 879, 1342, 948
3938, 772, 774, 773
3939, 1555, 1556, 1554
3940, 958, 1729, 1340
3941, 1027, 2672, 1028
3942, 681, 683, 682
3943, 880, 2666, 879
3944, 1119, 1121, 1120
3945, 683, 772, 682
3946, 1309, 1311, 1310
3947, 776, 870, 853
3948, 774, 776, 775
3949, 1342, 1916, 1815
3950, 1729, 2686, 2033
3951, 1309, 1310, 1305
3952, 1754, 2685, 894
3953, 679, 2673, 678
3954, 2657, 2693, 1643
3955, 979, 980, 977
3956, 1637, 2724, 1629
3957, 2398, 2714, 1132
3958, 1430, 1699, 1428
3959, 998, 2686, 959
3960, 1119, 1120, 1118
3961, 1384, 2222, 2221
3962, 1640, 1644, 1642
3963, 680, 2679, 681
3964, 680, 681, 679
3965, 684, 2679, 777
3966, 2361, 2699, 1754
3967, 688, 2681, 685
3968, 708, 2693, 2657
3969, 1811, 2672, 1027
3970, 1342, 1815, 948
3971, 959, 2686, 958
3972, 1308, 1682, 1309
3973, 1183, 1233, 1181
3974, 1668, 1811, 1027
3975, 685, 2681, 683
3976, 879, 948, 864
3977, 1117, 1119, 1118
3978, 443, 2562, 2561
3979, 877, 1668, 1027
3980, 682, 2673, 679
3981, 1509, 2698, 2409
3982, 1500, 2228, 2227
3983, 1035, 2445, 1036
3984, 1436, 1492, 1432
3985, 1668, 1922, 1811
3986, 2434, 2701, 1613
3987, 970, 2666, 880
3988, 773, 2673, 682
3989, 2350, 2754, 2747
3990, 1507, 2186, 1743
3991, 470, 2532, 2528
3992, 677, 678, 675
3993, 1816, 2692, 948
3994, 677, 679, 678
3995, 1046, 1677, 1048
3996, 1114, 1226, 1112
3997, 2104, 2106, 2105
3998, 2219, 2774, 805
3999, 1308, 2683, 1688
4000, 1117, 1118, 1116
4001, 1132, 2714, 1129
4002, 864, 2692, 817
4003, 958, 2686, 1729
4004, 817, 2692, 837
4005, 681, 2679, 684
4006, 683, 2681, 772
4007, 2445, 2446, 1039
4008, 1127, 2712, 1130
4009, 1552, 1555, 1554
4010, 673, 676, 675
4011, 853, 2700, 877
4012, 2334, 2374, 440
4013, 2381, 2735, 1122
4014, 1178, 2711, 1180
4015, 1119, 2751, 2351
4016, 776, 2695, 871
4017, 1028, 2672, 1031
4018, 1340, 2700, 870
4019, 1115, 1117, 1116
4020, 987, 1010, 986
4021, 1109, 1198, 1111
4022, 1754, 2699, 2689
4023, 1555, 1898, 1897
4024, 2194, 2286, 1386
4025, 676, 677, 675
4026, 1036, 2445, 1039
4027, 1428, 2696, 1424
4028, 694, 2745, 2736
4029, 1760, 2722, 2702
4030, 669, 672, 671
4031, 1424, 2696, 1498
4032, 2617, 2702, 778
4033, 772, 2681, 1648
4034, 981, 1066, 980
4035, 868, 2708, 1359
4036, 2445, 2448, 2446
4037, 870, 2700, 853
4038, 1196, 2711, 2257
4039, 1304, 1685, 1302
4040, 990, 2755, 2393
4041, 935, 2703, 990
4042, 948, 2692, 864
4043, 1128, 2717, 1126
4044, 778, 2702, 686
4045, 1043, 1045, 1044
4046, 1648, 2695, 774
4047, 2692, 2708, 837
4048, 1115, 1116, 1114
4049, 1308, 1309, 1305
4050, 774, 2695, 776
4051, 2264, 2266, 2265
4052, 1032, 2705, 1035
4053, 1303, 1308, 1305
4054, 877, 2700, 1668
4055, 108, 2562, 443
4056, 686, 2702, 687
4057, 863, 1655, 800
4058, 1187, 1248, 1185
4059, 1762, 2728, 1649
4060, 2403, 2753, 989
4061, 2720, 2749, 1766
4062, 1113, 1115, 1114
4063, 1555, 1897, 1556
4064, 2187, 2210, 2186
4065, 866, 917, 915
4066, 1765, 2756, 2703
4067, 1699, 2696, 1428
4068, 1816, 2708, 2692
4069, 1490, 2716, 1442
4070, 1253, 2843, 2201
4071, 1550, 2704, 1552
4072, 1031, 2705, 1032
4073, 2447, 2448, 2445
4074, 1760, 2728, 2722
4075, 2544, 2546, 447
4076, 689, 2722, 692
4077, 690, 2725, 688
4078, 1113, 1114, 1112
4079, 1813, 2800, 1333
4080, 989, 2709, 905
4081, 1440, 2719, 1507
4082, 976, 1705, 1690
4083, 1359, 2723, 1872
4084, 2708, 2723, 1359
4085, 976, 1690, 974
4086, 1697, 2704, 1550
4087, 1304, 1686, 1685
4088, 2732, 2742, 696
4089, 1035, 2447, 2445
4090, 837, 2708, 868
4091, 1650, 2733, 1764
4092, 669, 670, 667
4093, 669, 671, 670
4094, 980, 2710, 977
4095, 673, 674, 671
4096, 665, 668, 667
4097, 1129, 2714, 1128
4098, 920, 922, 921
4099, 1108, 1218, 1106
4100, 673, 675, 674
4101, 1035, 2705, 2447
4102, 680, 2737, 2359
4103, 1437, 2719, 1440
4104, 1785, 2713, 1765
4105, 1111, 1113, 1112
4106, 800, 2752, 784
4107, 724, 2159, 2158
4108, 1552, 2704, 1555
4109, 2725, 2733, 2632
4110, 1310, 2706, 1305
4111, 1007, 1770, 1658
4112, 1819, 2721, 1340
4113, 1125, 2712, 1127
4114, 977, 2710, 976
4115, 1507, 2187, 2186
4116, 672, 673, 671
4117, 986, 2727, 983
4118, 1439, 2716, 1438
4119, 2709, 2720, 1646
4120, 2682, 2742, 2403
4121, 2269, 2298, 1746
4122, 1340, 2721, 2700
4123, 1507, 2719, 2187
4124, 1303, 1305, 1304
4125, 668, 669, 667
4126, 1066, 1824, 980
4127, 1040, 2726, 1043
4128, 1427, 2754, 2419
4129, 1195, 2730, 1219
4130, 1629, 2724, 1631
4131, 1555, 2704, 1898
4132, 2702, 2722, 687
4133, 1111, 1112, 1110
4134, 1066, 1825, 1824
4135, 1126, 2717, 1235
4136, 922, 1007, 1003
4137, 2700, 2721, 1668
4138, 1024, 1025, 1023
4139, 1558, 1730, 1560
4140, 1109, 1111, 1110
4141, 1816, 2723, 2708
4142, 1113, 2741, 1115
4143, 665, 666, 663
4144, 1358, 2819, 2032
4145, 1103, 1247, 1105
4146, 1107, 2803, 2234
4147, 943, 1651, 944
4148, 687, 2722, 689
4149, 661, 664, 663
4150, 1181, 2694, 1179
4151, 2386, 2747, 2385
4152, 1004, 1005, 1002
4153, 693, 2732, 696
4154, 1304, 2706, 1686
4155, 2364, 2758, 1116
4156, 2393, 2745, 2688
4157, 2317, 2770, 670
4158, 1824, 2710, 980
4159, 1305, 2706, 1304
4160, 1668, 2721, 1922
4161, 1882, 2723, 1816
4162, 665, 667, 666
4163, 664, 665, 663
4164, 1634, 2269, 1746
4165, 694, 2736, 691
4166, 657, 660, 659
4167, 1232, 1239, 1212
4168, 1303, 1304, 1302
4169, 1836, 1837, 1045
4170, 1109, 1110, 1108
4171, 1122, 2735, 1120
4172, 1897, 2715, 1556
4173, 966, 1057, 1017
4174, 981, 2727, 1066
4175, 1648, 2725, 2632
4176, 1233, 2694, 1181
4177, 677, 2737, 680
4178, 661, 662, 659
4179, 1444, 1490, 1442
4180, 1371, 1373, 1372
4181, 983, 2727, 981
4182, 1301, 1303, 1302
4183, 1556, 2715, 1558
4184, 1649, 2728, 1760
4185, 661, 663, 662
4186, 1043, 2726, 1836
4187, 1967, 1968, 1966
4188, 1107, 1109, 1108
4189, 1956, 1958, 1957
4190, 976, 2710, 1705
4191, 882, 955, 823
4192, 1039, 2726, 1040
4193, 431, 2300, 217
4194, 461, 2481, 172
4195, 688, 2725, 2681
4196, 1766, 2761, 1834
4197, 908, 1019, 852
4198, 2320, 2757, 674
4199, 1762, 2742, 2732
4200, 869, 2749, 996
4201, 2736, 2745, 1764
4202, 1695, 2727, 986
4203, 1300, 1355, 1298
4204, 660, 661, 659
4205, 1107, 1108, 1106
4206, 1301, 2729, 2683
4207, 1102, 1216, 1100
4208, 678, 2743, 675
4209, 2681, 2725, 1648
4210, 1043, 1836, 1045
4211, 2383, 2743, 678
4212, 653, 656, 655
4213, 657, 658, 655
4214, 692, 2732, 693
4215, 999, 1000, 924
4216, 2446, 2726, 1039
4217, 2761, 2762, 1834
4218, 673, 2740, 676
4219, 2281, 2772, 1110
4220, 2212, 2809, 2798
4221, 1105, 1107, 1106
4222, 1265, 1266, 1264
4223, 1010, 1731, 1695
4224, 1301, 1302, 1300
4225, 1762, 2732, 2728
4226, 1598, 1600, 1597
4227, 1010, 1695, 986
4228, 1558, 2715, 1730
4229, 1099, 1205, 1101
4230, 657, 659, 658
4231, 1289, 2763, 1291
4232, 1117, 2751, 1119
4233, 876, 1387, 875
4234, 2632, 2733, 1650
4235, 872, 918, 842
4236, 1805, 1806, 1331
4237, 1183, 2731, 1233
4238, 1763, 2756, 997
4239, 1287, 1676, 1289
4240, 996, 2749, 2720
4241, 1105, 1106, 1104
4242, 1196, 2257, 2256
4243, 669, 2748, 672
4244, 1297, 1307, 1299
4245, 676, 2737, 677
4246, 646, 2879, 2872
4247, 1120, 2735, 1228
4248, 2733, 2736, 1764
4249, 656, 657, 655
4250, 691, 2736, 690
4251, 1380, 1735, 1716
4252, 1564, 1702, 1566
4253, 886, 2824, 1737
4254, 2524, 2530, 532
4255, 1299, 1301, 1300
4256, 2749, 2761, 1766
4257, 919, 920, 910
4258, 672, 2740, 673
4259, 2703, 2756, 1763
4260, 1103, 1105, 1104
4261, 1448, 1477, 1446
4262, 824, 2233, 1381
4263, 2728, 2732, 692
4264, 1115, 2741, 1200
4265, 2521, 2526, 2523
4266, 1504, 2174, 2173
4267, 1025, 1775, 1053
4268, 2348, 2754, 2350
4269, 10, 577, 11
4270, 649, 650, 647
4271, 2346, 2754, 2348
4272, 1336, 1830, 1337
4273, 649, 652, 651
4274, 835, 899, 836
4275, 1285, 2785, 1287
4276, 696, 2742, 2682
4277, 1822, 1893, 1892
4278, 1103, 1104, 1102
4279, 1116, 2758, 1114
4280, 2199, 2300, 431
4281, 653, 655, 654
4282, 653, 654, 651
4283, 1665, 1791, 1664
4284, 675, 2743, 674
4285, 1806, 2746, 1331
4286, 674, 2757, 671
4287, 1005, 1023, 1022
4288, 1299, 2729, 1301
4289, 1101, 1103, 1102
4290, 1578, 1604, 1580
4291, 2385, 2747, 1427
4292, 1106, 2764, 1104
4293, 1103, 2739, 1247
4294, 40, 519, 41
4295, 28, 518, 29
4296, 922, 1008, 1007
4297, 2688, 2745, 694
4298, 939, 2788, 943
4299, 1307, 2729, 1299
4300, 2742, 2753, 2403
4301, 931, 1657, 1656
4302, 649, 651, 650
4303, 1446, 2734, 1444
4304, 652, 653, 651
4305, 1608, 2213, 1577
4306, 665, 2759, 668
4307, 1101, 1102, 1100
4308, 1776, 1777, 1053
4309, 1830, 1910, 1831
4310, 690, 2736, 2733
4311, 668, 2748, 669
4312, 1775, 1776, 1053
4313, 951, 2749, 869
4314, 57, 585, 58
4315, 1444, 2734, 1490
4316, 1023, 2718, 1022
4317, 914, 937, 913
4318, 2159, 2165, 2161
4319, 1299, 1300, 1298
4320, 1096, 1211, 1094
4321, 1189, 2806, 2191
4322, 1099, 1101, 1100
4323, 1186, 2806, 1189
4324, 1200, 2751, 1117
4325, 1025, 1053, 1023
4326, 2393, 2755, 2745
4327, 1205, 2739, 1101
4328, 1969, 1970, 1968
4329, 1958, 1960, 1959
4330, 1761, 2753, 1762
4331, 919, 1331, 920
4332, 1776, 1945, 1777
4333, 1000, 1002, 1001
4334, 12, 592, 13
4335, 645, 648, 647
4336, 2419, 2754, 2346
4337, 648, 649, 647
4338, 641, 644, 643
4339, 891, 892, 890
4340, 896, 913, 839
4341, 1782, 1799, 1692
4342, 26, 571, 27
4343, 42, 572, 43
4344, 13, 2023, 14
4345, 1764, 2755, 1763
4346, 1093, 1209, 1095
4347, 645, 646, 643
4348, 2070, 2072, 2069
4349, 55, 595, 56
4350, 1053, 2718, 1023
4351, 1824, 2744, 2710
4352, 1101, 2739, 1103
4353, 1669, 1670, 937
4354, 1099, 1100, 1098
4355, 2214, 2215, 2213
4356, 1762, 2753, 2742
4357, 2710, 2744, 1705
4358, 997, 2756, 998
4359, 2285, 2832, 2284
4360, 43, 2025, 44
4361, 25, 2024, 26
4362, 1655, 2752, 800
4363, 909, 910, 863
4364, 14, 597, 15
4365, 1477, 2734, 1446
4366, 1297, 1299, 1298
4367, 1248, 2731, 1185
4368, 54, 2026, 55
4369, 951, 2761, 2749
4370, 1570, 1683, 1572
4371, 919, 1804, 1331
4372, 1296, 1343, 1294
4373, 1185, 2731, 1183
4374, 1236, 2201, 1377
4375, 53, 949, 54
4376, 44, 578, 45
4377, 24, 579, 25
4378, 1434, 2809, 2377
4379, 1291, 1306, 1293
4380, 671, 2757, 670
4381, 1012, 1778, 1013
4382, 59, 2015, 516
4383, 16, 957, 17
4384, 1005, 1022, 1002
4385, 23, 2000, 24
4386, 1114, 2758, 1226
4387, 670, 2770, 667
4388, 51, 1021, 52
4389, 645, 647, 646
4390, 1804, 1805, 1331
4391, 644, 645, 643
4392, 1320, 1803, 1801
4393, 2745, 2755, 1764
4394, 664, 2759, 665
4395, 21, 962, 22
4396, 47, 961, 48
4397, 49, 1054, 50
4398, 19, 596, 20
4399, 813, 821, 812
4400, 1017, 2790, 965
4401, 1454, 1485, 1452
4402, 920, 2746, 922
4403, 1097, 1099, 1098
4404, 909, 919, 910
4405, 1331, 2746, 920
4406, 1583, 2779, 1581
4407, 666, 2771, 663
4408, 1790, 1835, 1670
4409, 2284, 2832, 2312
4410, 1582, 1603, 1584
4411, 1110, 2772, 1108
4412, 1704, 2761, 951
4413, 532, 2530, 369
4414, 1657, 1826, 1781
4415, 1370, 2862, 2037
4416, 874, 924, 923
4417, 862, 956, 909
4418, 1767, 1768, 1014
4419, 1704, 2762, 2761
4420, 1297, 1298, 1296
4421, 1097, 1098, 1096
4422, 1875, 2762, 1704
4423, 1009, 1014, 902
4424, 1885, 1886, 1813
4425, 1574, 1605, 1576
4426, 1100, 2787, 1098
4427, 900, 1783, 933
4428, 2352, 2798, 2340
4429, 1803, 1921, 1881
4430, 1777, 2718, 1053
4431, 1458, 1693, 1456
4432, 786, 800, 784
4433, 1377, 2201, 1380
4434, 57, 1975, 585
4435, 862, 863, 800
4436, 639, 640, 637
4437, 597, 1990, 15
4438, 519, 1952, 41
4439, 28, 1962, 518
4440, 53, 2008, 949
4441, 1295, 1297, 1296
4442, 1095, 1097, 1096
4443, 578, 1996, 45
4444, 1000, 1001, 924
4445, 662, 2782, 659
4446, 943, 2788, 1839
4447, 577, 1946, 11
4448, 51, 2019, 1021
4449, 661, 2781, 664
4450, 1263, 2862, 1265
4451, 1849, 1878, 1850
4452, 1218, 2764, 1106
4453, 1321, 1653, 1267
4454, 922, 2746, 1008
4455, 1097, 2794, 1099
4456, 1095, 1096, 1094
4457, 1060, 2820, 1062
4458, 641, 643, 642
4459, 626, 792, 624
4460, 783, 785, 784
4461, 1867, 1888, 1866
4462, 1262, 1347, 1345
4463, 726, 2188, 723
4464, 862, 909, 863
4465, 918, 1692, 1652
4466, 1497, 2114, 2113
4467, 1320, 1801, 1321
4468, 1093, 1095, 1094
4469, 785, 842, 786
4470, 1069, 1254, 1071
4471, 1893, 1894, 1892
4472, 1803, 1881, 1801
4473, 791, 874, 873
4474, 638, 639, 637
4475, 1801, 1802, 1321
4476, 1894, 1934, 1933
4477, 918, 1652, 842
4478, 657, 2792, 660
4479, 1283, 1675, 1285
4480, 1295, 1296, 1294
4481, 638, 783, 782
4482, 1055, 2795, 1851
4483, 1223, 1231, 1230
4484, 785, 786, 784
4485, 515, 1913, 9
4486, 633, 636, 635
4487, 786, 862, 800
4488, 1252, 2816, 1283
4489, 667, 2770, 666
4490, 946, 2808, 966
4491, 1320, 1321, 1267
4492, 663, 2771, 662
4493, 2039, 2087, 1713
4494, 789, 790, 788
4495, 568, 1924, 39
4496, 1237, 2201, 1236
4497, 2104, 2105, 478
4498, 1093, 1094, 1092
4499, 30, 1923, 567
4500, 1371, 1372, 1268
4501, 1215, 2822, 1081
4502, 1083, 1249, 1085
4503, 1108, 2772, 1218
4504, 1692, 1809, 1652
4505, 783, 784, 782
4506, 1373, 1854, 1853
4507, 658, 2801, 655
4508, 1090, 1213, 1088
4509, 781, 788, 634
4510, 1462, 1701, 1460
4511, 1293, 1295, 1294
4512, 1105, 2803, 1107
4513, 1292, 1329, 1290
4514, 781, 1654, 789
4515, 597, 1993, 1990
4516, 919, 2765, 1804
4517, 874, 923, 873
4518, 1929, 1930, 1887
4519, 2247, 2868, 2246
4520, 638, 782, 639
4521, 793, 794, 792
4522, 641, 642, 640
4523, 873, 931, 832
4524, 660, 2781, 661
4525, 1091, 1093, 1092
4526, 1737, 2824, 2036
4527, 791, 832, 790
4528, 1934, 2013, 1933
4529, 659, 2782, 658
4530, 642, 2867, 2849
4531, 1291, 2763, 1306
4532, 1231, 1237, 1236
4533, 956, 2765, 909
4534, 909, 2765, 919
4535, 1087, 1214, 1089
4536, 781, 789, 788
4537, 636, 637, 635
4538, 1580, 2750, 1582
4539, 1865, 1866, 1059
4540, 639, 641, 640
4541, 1885, 1887, 1886
4542, 636, 638, 637
4543, 1267, 2807, 1264
4544, 816, 960, 748
4545, 791, 873, 832
4546, 1962, 2778, 518
4547, 2270, 2840, 2231
4548, 1865, 1867, 1866
4549, 633, 634, 631
4550, 789, 791, 790
4551, 2159, 2760, 2167
4552, 633, 635, 634
4553, 1929, 1972, 1930
4554, 1009, 1767, 1014
4555, 2181, 2197, 523
4556, 1343, 2769, 1294
4557, 1266, 1320, 1267
4558, 1264, 2807, 1248
4559, 1091, 1092, 1090
4560, 931, 1829, 1657
4561, 862, 2767, 956
4562, 1293, 1294, 1292
4563, 2246, 2868, 2289
4564, 906, 1012, 830
4565, 1653, 2844, 2217
4566, 636, 2776, 2707
4567, 2210, 2809, 2212
4568, 803, 2856, 896
4569, 1604, 2750, 1580
4570, 2187, 2809, 2210
4571, 654, 2810, 651
4572, 2159, 2167, 2165
4573, 626, 793, 792
4574, 1894, 1933, 1892
4575, 629, 630, 627
4576, 842, 2767, 786
4577, 1611, 2832, 2305
4578, 1710, 1915, 1914
4579, 1089, 1091, 1090
4580, 1094, 2823, 1092
4581, 1925, 1926, 1843
4582, 1651, 2808, 944
4583, 1216, 2787, 1100
4584, 1582, 2750, 1603
4585, 943, 1839, 1651
4586, 786, 2767, 862
4587, 1287, 2785, 1676
4588, 1652, 2767, 842
4589, 629, 632, 631
4590, 1842, 1925, 1843
4591, 656, 2792, 657
4592, 632, 633, 631
4593, 938, 2788, 939
4594, 637, 2768, 635
4595, 1839, 1902, 1651
4596, 1291, 1293, 1292
4597, 632, 2776, 633
4598, 724, 2760, 2159
4599, 1292, 2769, 1329
4600, 1089, 1090, 1088
4601, 422, 2831, 421
4602, 2340, 2798, 1434
4603, 1081, 2822, 1083
4604, 1663, 2805, 2773
4605, 635, 781, 634
4606, 994, 1818, 1059
4607, 829, 830, 805
4608, 625, 628, 627
4609, 2297, 2861, 1659
4610, 1084, 1210, 1082
4611, 721, 2760, 724
4612, 631, 2773, 630
4613, 633, 2776, 636
4614, 815, 2819, 897
4615, 1099, 2794, 1205
4616, 1822, 2775, 1893
4617, 428, 2906, 599
4618, 1885, 1929, 1887
4619, 2231, 2840, 2232
4620, 1087, 1089, 1088
4621, 1294, 2769, 1292
4622, 625, 627, 626
4623, 782, 2789, 639
4624, 2277, 2840, 1503
4625, 944, 2808, 946
4626, 641, 2789, 644
4627, 2752, 2789, 782
4628, 3125, 3166, 2464
4629, 2851, 2861, 648
4630, 1062, 1793, 1335
4631, 795, 814, 794
4632, 629, 631, 630
4633, 655, 2801, 654
4634, 639, 2789, 641
4635, 1708, 1709, 1319
4636, 829, 952, 906
4637, 1247, 2803, 1105
4638, 1818, 1865, 1059
4639, 640, 2768, 637
4640, 1781, 2864, 1656
4641, 1652, 2812, 2767
4642, 1288, 1324, 1286
4643, 966, 2808, 1352
4644, 906, 1052, 1012
4645, 923, 2777, 873
4646, 2268, 2788, 938
4647, 1660, 1944, 1908
4648, 873, 2777, 931
4649, 829, 906, 830
4650, 1387, 2337, 1794
4651, 1087, 1088, 1086
4652, 731, 2848, 730
4653, 1091, 2885, 2230
4654, 1184, 2806, 1186
4655, 2767, 2812, 956
4656, 795, 1006, 831
4657, 1240, 1241, 1239
4658, 1318, 1319, 1259
4659, 791, 2783, 874
4660, 1672, 2813, 792
4661, 635, 2768, 781
4662, 2377, 2809, 2187
4663, 628, 629, 627
4664, 831, 881, 814
4665, 1291, 1292, 1290
4666, 953, 1336, 881
4667, 931, 2777, 1829
4668, 994, 1009, 902
4669, 1654, 2783, 789
4670, 2325, 2830, 1655
4671, 1249, 2786, 1085
4672, 616, 799, 618
4673, 1352, 1849, 1057
4674, 1020, 1691, 1689
4675, 1266, 2766, 1320
4676, 1469, 1493, 1466
4677, 2236, 2811, 828
4678, 908, 1020, 1019
4679, 1783, 1784, 933
4680, 651, 2810, 650
4681, 789, 2783, 791
4682, 488, 2138, 2137
4683, 1703, 2841, 1546
4684, 1548, 2841, 1697
4685, 1822, 1892, 1891
4686, 634, 2773, 631
4687, 1780, 2881, 2219
4688, 788, 2773, 634
4689, 1268, 2766, 1266
4690, 793, 795, 794
4691, 994, 1059, 1009
4692, 781, 2768, 1654
4693, 1065, 2859, 1063
4694, 622, 801, 752
4695, 1725, 1932, 1931
4696, 801, 803, 802
4697, 2079, 2882, 2193
4698, 804, 805, 802
4699, 1357, 1733, 898
4700, 1289, 1291, 1290
4701, 822, 2824, 886
4702, 1085, 1087, 1086
4703, 1653, 2807, 1267
4704, 827, 947, 901
4705, 1242, 1256, 1241
4706, 1088, 2845, 1086
4707, 1189, 2191, 2190
4708, 1588, 1599, 1590
4709, 1336, 2780, 1830
4710, 751, 807, 806
4711, 619, 620, 617
4712, 625, 626, 624
4713, 1725, 1931, 1724
4714, 1248, 2807, 2731
4715, 1087, 2786, 1214
4716, 1266, 1267, 1264
4717, 2216, 2903, 2215
4718, 1814, 2022, 1734
4719, 623, 624, 621
4720, 804, 829, 805
4721, 807, 812, 808
4722, 1709, 1874, 1712
4723, 803, 839, 804
4724, 2789, 2830, 644
4725, 901, 902, 828
4726, 2807, 2821, 2731
4727, 890, 2858, 887
4728, 795, 831, 814
4729, 900, 2857, 1783
4730, 623, 625, 624
4731, 901, 994, 902
4732, 2073, 2074, 1607
4733, 1902, 2855, 1651
4734, 1843, 1904, 1841
4735, 1657, 2799, 1826
4736, 1653, 2821, 2807
4737, 1015, 1665, 1664
4738, 966, 1352, 1057
4739, 1289, 1290, 1288
4740, 1809, 2812, 1652
4741, 1079, 1215, 1081
4742, 927, 2784, 925
4743, 1373, 1853, 1372
4744, 1886, 2800, 1813
4745, 2731, 2821, 1233
4746, 831, 953, 881
4747, 1723, 1858, 1725
4748, 1085, 1086, 1084
4749, 787, 796, 614
4750, 1078, 1203, 1076
4751, 2773, 2805, 630
4752, 953, 1827, 1336
4753, 1829, 2799, 1657
4754, 1595, 1596, 1594
4755, 808, 2811, 806
4756, 650, 2892, 2886
4757, 797, 798, 796
4758, 2057, 2058, 521
4759, 1287, 1289, 1288
4760, 1911, 2887, 1831
4761, 1333, 1787, 1065
4762, 1329, 2804, 1290
4763, 827, 828, 808
4764, 1884, 1885, 1813
4765, 2874, 2884, 656
4766, 1842, 1843, 1841
4767, 1854, 1905, 1853
4768, 333, 2893, 526
4769, 630, 2797, 627
4770, 1610, 2868, 2283
4771, 1283, 2816, 1675
4772, 618, 619, 617
4773, 849, 2697, 846
4774, 2752, 2830, 2789
4775, 1085, 2786, 1087
4776, 2294, 2898, 988
4777, 1288, 2804, 1324
4778, 2292, 2867, 2291
4779, 1321, 2844, 1653
4780, 1352, 1868, 1849
4781, 1083, 1085, 1084
4782, 645, 2851, 648
4783, 812, 827, 808
4784, 1772, 2934, 2117
4785, 627, 2797, 626
4786, 1083, 2822, 1249
4787, 2297, 2870, 2865
4788, 1211, 2823, 1094
4789, 876, 2858, 1387
4790, 803, 804, 802
4791, 630, 2805, 2797
4792, 2849, 2867, 2633
4793, 807, 808, 806
4794, 801, 802, 752
4795, 2791, 2959, 2955
4796, 1071, 1072, 1070
4797, 1387, 1794, 1388
4798, 1900, 1901, 1792
4799, 1710, 2837, 1915
4800, 740, 2147, 737
4801, 988, 2827, 987
4802, 748, 2793, 744
4803, 1841, 2850, 1496
4804, 811, 825, 798
4805, 626, 2797, 793
4806, 2941, 2987, 1691
4807, 827, 901, 828
4808, 1592, 1595, 1594
4809, 1737, 2036, 2035
4810, 1827, 2780, 1336
4811, 1840, 1842, 1841
4812, 1083, 1084, 1082
4813, 2312, 2832, 1611
4814, 2106, 2107, 2105
4815, 2215, 2903, 2303
4816, 821, 2802, 812
4817, 1771, 2870, 1658
4818, 1595, 1789, 1602
4819, 1358, 2032, 1833
4820, 1723, 1724, 1722
4821, 642, 2849, 640
4822, 1496, 2850, 1880
4823, 1723, 1725, 1724
4824, 1372, 2766, 1268
4825, 1821, 1879, 1334
4826, 623, 2828, 625
4827, 1290, 2804, 1288
4828, 937, 1341, 913
4829, 918, 2869, 1782
4830, 1287, 1288, 1286
4831, 1795, 1796, 1388
4832, 799, 1744, 618
4833, 1252, 1283, 1260
4834, 2966, 2980, 1311
4835, 649, 2865, 652
4836, 2379, 2896, 1663
4837, 421, 2831, 2202
4838, 994, 2817, 1818
4839, 1318, 1708, 1319
4840, 1822, 1891, 1821
4841, 797, 1011, 811
4842, 622, 752, 623
4843, 1188, 2835, 1187
4844, 751, 806, 734
4845, 829, 2818, 952
4846, 622, 623, 621
4847, 1074, 1250, 1072
4848, 2792, 2884, 2294
4849, 738, 745, 741
4850, 1714, 1863, 1798
4851, 625, 2828, 628
4852, 1081, 1083, 1082
4853, 1318, 1710, 1708
4854, 1077, 2948, 2115
4855, 1484, 1488, 1487
4856, 2073, 2127, 2074
4857, 2290, 2879, 1769
4858, 1062, 2820, 1793
4859, 1710, 1914, 1852
4860, 932, 1662, 855
4861, 1835, 1859, 1670
4862, 619, 622, 621
4863, 787, 797, 796
4864, 1285, 1287, 1286
4865, 1212, 2730, 1195
4866, 1871, 1895, 1602
4867, 616, 618, 617
4868, 619, 621, 620
4869, 750, 835, 749
4870, 2774, 2828, 752
4871, 1655, 2830, 2752
4872, 947, 2817, 901
4873, 828, 2811, 808
4874, 1335, 1822, 1821
4875, 827, 2802, 947
4876, 811, 903, 825
4877, 1774, 2905, 2236
4878, 2325, 2861, 2851
4879, 1503, 2840, 2270
4880, 2872, 2879, 2291
4881, 1387, 1388, 875
4882, 804, 2818, 829
4883, 901, 2817, 994
4884, 839, 2818, 804
4885, 812, 2802, 827
4886, 1484, 1487, 1483
4887, 797, 811, 798
4888, 613, 616, 615
4889, 646, 2872, 643
4890, 1081, 1082, 1080
4891, 752, 2828, 623
4892, 1721, 1722, 1601
4893, 1546, 2841, 1548
4894, 613, 614, 611
4895, 1283, 1285, 1284
4896, 616, 617, 615
4897, 795, 2846, 1006
4898, 1710, 1852, 1708
4899, 616, 2815, 799
4900, 1479, 1674, 1473
4901, 1073, 1217, 1075
4902, 884, 1016, 1015
4903, 1812, 1884, 1813
4904, 1260, 1318, 1259
4905, 1285, 1286, 1284
4906, 848, 849, 846
4907, 2325, 2851, 2830
4908, 900, 933, 932
4909, 1654, 2849, 2633
4910, 907, 908, 852
4911, 622, 2829, 801
4912, 1802, 2844, 1321
4913, 1283, 1284, 1260
4914, 926, 1018, 928
4915, 1252, 1260, 1259
4916, 2889, 2907, 632
4917, 887, 2858, 876
4918, 1079, 1081, 1080
4919, 653, 2874, 656
4920, 1608, 2882, 2214
4921, 1677, 2921, 1048
4922, 1794, 1795, 1388
4923, 599, 602, 601
4924, 517, 2893, 334
4925, 1895, 2875, 1602
4926, 750, 900, 855
4927, 611, 2825, 610
4928, 1665, 1792, 1791
4929, 1773, 2911, 2183
4930, 1064, 1810, 1332
4931, 2297, 2865, 2861
4932, 1595, 1602, 1596
4933, 1252, 1259, 1251
4934, 2913, 2919, 1775
4935, 950, 2858, 890
4936, 851, 852, 849
4937, 613, 615, 614
4938, 644, 2851, 645
4939, 1238, 1251, 1237
4940, 2814, 2833, 620
4941, 1258, 1261, 1256
4942, 256, 2838, 255
4943, 1213, 2845, 1088
4944, 1496, 1880, 1489
4945, 933, 1684, 932
4946, 2797, 2846, 793
4947, 1659, 2861, 2325
4948, 1812, 1813, 1333
4949, 1789, 1871, 1602
4950, 1079, 1080, 1078
4951, 1721, 1723, 1722
4952, 238, 430, 237
4953, 254, 429, 253
4954, 1720, 1870, 1721
4955, 615, 787, 614
4956, 2808, 2855, 1352
4957, 793, 2846, 795
4958, 1840, 1841, 1496
4959, 2805, 2846, 2797
4960, 2766, 2854, 1803
4961, 851, 930, 907
4962, 1335, 1821, 1334
4963, 1651, 2855, 2808
4964, 907, 942, 908
4965, 1265, 2862, 1370
4966, 847, 1055, 850
4967, 620, 2833, 617
4968, 1874, 2909, 1712
4969, 612, 2815, 613
4970, 746, 750, 749
4971, 750, 855, 835
4972, 1352, 2855, 1868
4973, 1061, 1344, 1056
4974, 650, 2886, 647
4975, 1495, 1840, 1496
4976, 2208, 2925, 1672
4977, 851, 907, 852
4978, 2830, 2851, 644
4979, 1488, 1495, 1489
4980, 1771, 2884, 2874
4981, 1062, 1335, 1334
4982, 898, 2826, 816
4983, 1715, 3006, 2039
4984, 617, 2833, 615
4985, 1077, 1079, 1078
4986, 640, 2849, 2768
4987, 900, 932, 855
4988, 1609, 2903, 2245
4989, 1670, 2836, 937
4990, 796, 2825, 614
4991, 1238, 1252, 1251
4992, 1724, 3144, 1722
4993, 734, 2848, 731
4994, 612, 613, 611
4995, 1832, 2932, 2871
4996, 241, 498, 240
4997, 257, 497, 256
4998, 2828, 2881, 628
4999, 960, 2793, 748
5000, 1847, 2030, 1845
5001, 816, 2826, 960
5002, 1089, 2885, 1091
5003, 1055, 1060, 1056
5004, 1595, 2834, 1789
5005, 2768, 2849, 1654
5006, 1599, 2834, 1590
5007, 613, 2815, 616
5008, 1590, 2834, 1592
5009, 618, 2829, 619
5010, 1598, 1601, 1600
5011, 1077, 1078, 1076
5012, 2811, 2848, 806
5013, 1231, 1238, 1237
5014, 599, 601, 600
5015, 1598, 1720, 1601
5016, 1904, 2850, 1841
5017, 605, 608, 607
5018, 609, 612, 611
5019, 1665, 1899, 1792
5020, 1720, 1721, 1601
5021, 629, 2889, 632
5022, 1487, 1700, 1483
5023, 1592, 2834, 1595
5024, 2289, 2868, 1610
5025, 1660, 1908, 1347
5026, 1239, 2730, 1212
5027, 648, 2865, 649
5028, 926, 2307, 1018
5029, 1773, 2913, 2911
5030, 1698, 1869, 1346
5031, 1062, 1334, 1061
5032, 1203, 2852, 1076
5033, 821, 2853, 2802
5034, 801, 2856, 803
5035, 937, 2836, 1341
5036, 848, 851, 849
5037, 251, 500, 250
5038, 235, 501, 234
5039, 609, 610, 607
5040, 1488, 1489, 1487
5041, 652, 2874, 653
5042, 619, 2829, 622
5043, 1656, 2864, 2379
5044, 34, 428, 35
5045, 1495, 1496, 1489
5046, 2080, 2882, 2079
5047, 847, 848, 846
5048, 614, 2825, 611
5049, 2362, 2923, 872
5050, 1284, 2837, 1260
5051, 1260, 2837, 1318
5052, 1318, 2837, 1710
5053, 1332, 1812, 1333
5054, 1256, 1257, 1241
5055, 2633, 2867, 2292
5056, 2886, 2892, 1769
5057, 414, 2904, 529
5058, 435, 2904, 415
5059, 1075, 1077, 1076
5060, 1060, 1062, 1061
5061, 892, 950, 890
5062, 1658, 2870, 2297
5063, 1796, 2853, 1388
5064, 2157, 2871, 2208
5065, 1075, 1076, 1074
5066, 875, 2853, 821
5067, 1859, 2836, 1670
5068, 1074, 2852, 1250
5069, 615, 2833, 787
5070, 835, 2873, 899
5071, 1398, 2908, 1468
5072, 1476, 2908, 1400
5073, 872, 2869, 918
5074, 1744, 2829, 618
5075, 2917, 2927, 726
5076, 2091, 2945, 2880
5077, 1733, 2826, 898
5078, 1055, 1056, 850
5079, 242, 2839, 241
5080, 1050, 2944, 2931
5081, 806, 2848, 734
5082, 1853, 2854, 1372
5083, 1899, 1900, 1792
5084, 1332, 1333, 1065
5085, 1771, 2874, 2870
5086, 1060, 1061, 1056
5087, 1372, 2854, 2766
5088, 2193, 2882, 1608
5089, 1787, 2859, 1065
5090, 1698, 1973, 1869
5091, 1781, 2910, 2864
5092, 506, 1848, 1067
5093, 2038, 2876, 1671
5094, 1262, 1345, 1261
5095, 1073, 1075, 1074
5096, 899, 1354, 1051
5097, 2774, 2881, 2828
5098, 847, 850, 848
5099, 2867, 2872, 2291
5100, 1810, 2842, 1332
5101, 1063, 2784, 927
5102, 1073, 1074, 1072
5103, 810, 2307, 926
5104, 643, 2872, 642
5105, 1071, 1073, 1072
5106, 1780, 2889, 2881
5107, 609, 611, 610
5108, 2310, 2974, 2972
5109, 1472, 2883, 1474
5110, 1362, 1876, 1800
5111, 727, 2917, 726
5112, 234, 2847, 233
5113, 1662, 2873, 855
5114, 1388, 2853, 875
5115, 1324, 2891, 1286
5116, 2620, 2978, 2975
5117, 929, 1063, 927
5118, 2176, 2894, 1223
5119, 1866, 2944, 2926
5120, 1991, 2982, 1992
5121, 2869, 2920, 1782
5122, 2906, 2914, 843
5123, 1345, 1698, 1346
5124, 2291, 2879, 2290
5125, 1332, 2842, 1812
5126, 1782, 2878, 1799
5127, 2861, 2865, 648
5128, 2631, 2912, 1516
5129, 1774, 2917, 2905
5130, 1064, 1332, 1065
5131, 243, 562, 242
5132, 259, 563, 258
5133, 608, 609, 607
5134, 845, 847, 846
5135, 647, 2886, 646
5136, 743, 2857, 746
5137, 610, 2880, 607
5138, 928, 954, 929
5139, 233, 564, 232
5140, 249, 565, 248
5141, 899, 2873, 1354
5142, 2707, 2916, 2362
5143, 2879, 2886, 1769
5144, 1076, 2852, 1074
5145, 1673, 2906, 428
5146, 2837, 2891, 1915
5147, 1048, 2919, 1049
5148, 1025, 2913, 1775
5149, 1345, 1346, 1261
5150, 2181, 3237, 2198
5151, 928, 929, 927
5152, 1831, 2887, 1832
5153, 750, 2857, 900
5154, 1780, 2907, 2889
5155, 907, 2863, 942
5156, 1254, 2915, 1071
5157, 855, 2873, 835
5158, 746, 2857, 750
5159, 244, 2860, 243
5160, 656, 2884, 2792
5161, 607, 2880, 606
5162, 1006, 2910, 831
5163, 930, 2863, 907
5164, 1214, 2885, 1089
5165, 605, 607, 606
5166, 2219, 2881, 2774
5167, 605, 606, 603
5168, 1064, 1065, 1063
5169, 2870, 2874, 652
5170, 1769, 2892, 1661
5171, 2848, 2905, 730
5172, 1826, 2928, 1781
5173, 845, 846, 844
5174, 2853, 2895, 2802
5175, 628, 2889, 629
5176, 1602, 2875, 1596
5177, 1596, 2875, 1598
5178, 1012, 2920, 1778
5179, 797, 2901, 1011
5180, 1238, 2894, 2816
5181, 602, 604, 603
5182, 1071, 2915, 1073
5183, 642, 2872, 2867
5184, 1362, 1800, 963
5185, 926, 928, 927
5186, 1284, 2891, 2837
5187, 497, 2838, 256
5188, 2857, 2899, 1783
5189, 851, 2866, 930
5190, 848, 2866, 851
5191, 1779, 2907, 1780
5192, 1982, 1983, 505
5193, 602, 603, 601
5194, 745, 2899, 741
5195, 929, 1064, 1063
5196, 845, 2914, 2795
5197, 1241, 2877, 1239
5198, 1598, 2875, 1720
5199, 2884, 2898, 2294
5200, 1719, 2918, 2177
5201, 1796, 2895, 2853
5202, 850, 2866, 848
5203, 602, 843, 604
5204, 1223, 2894, 1231
5205, 1286, 2891, 1284
5206, 604, 605, 603
5207, 2373, 2931, 2372
5208, 2864, 2910, 1006
5209, 2811, 2905, 2848
5210, 334, 2893, 333
5211, 1381, 2936, 2924
5212, 2810, 2892, 650
5213, 1712, 2909, 1714
5214, 1257, 2877, 1241
5215, 2833, 2901, 787
5216, 2881, 2889, 628
5217, 2494, 3039, 1491
5218, 2916, 2923, 2362
5219, 1770, 2898, 1771
5220, 2846, 2896, 1006
5221, 1009, 2926, 1767
5222, 599, 600, 598
5223, 1599, 3261, 2125
5224, 2697, 2934, 2902
5225, 646, 2886, 2879
5226, 1866, 2926, 1059
5227, 241, 2839, 498
5228, 2303, 2903, 1609
5229, 1239, 2877, 2730
5230, 1064, 2888, 1810
5231, 1778, 2920, 2869
5232, 1773, 2919, 2913
5233, 2805, 2896, 2846
5234, 2697, 2902, 844
5235, 2902, 2934, 608
5236, 741, 2899, 743
5237, 743, 2899, 2857
5238, 1845, 2918, 1719
5239, 2894, 2930, 2816
5240, 415, 2904, 414
5241, 1771, 2898, 2884
5242, 601, 810, 600
5243, 1781, 2928, 2910
5244, 1400, 2908, 1398
5245, 1663, 2896, 2805
5246, 1231, 2894, 1238
5247, 2802, 2895, 947
5248, 843, 845, 844
5249, 501, 2847, 234
5250, 787, 2901, 797
5251, 914, 2941, 1669
5252, 963, 2890, 892
5253, 2814, 2901, 2833
5254, 2084, 3182, 2203
5255, 2901, 2925, 1011
5256, 428, 599, 598
5257, 34, 1673, 428
5258, 954, 2888, 929
5259, 632, 2907, 2776
5260, 1048, 2921, 2919
5261, 892, 2890, 950
5262, 2166, 2942, 736
5263, 926, 927, 925
5264, 2176, 2930, 2894
5265, 395, 2937, 534
5266, 438, 2937, 396
5267, 2106, 2996, 2108
5268, 843, 844, 604
5269, 1791, 2939, 1664
5270, 506, 1873, 1848
5271, 2236, 2905, 2811
5272, 562, 2839, 242
5273, 831, 2910, 953
5274, 1779, 2916, 2907
5275, 929, 2888, 1064
5276, 1080, 2929, 1078
5277, 2961, 2971, 1295
5278, 1016, 3061, 2154
5279, 1774, 2927, 2917
5280, 544, 2938, 2547
5281, 233, 2847, 564
5282, 2064, 2962, 1368
5283, 1516, 2912, 1984
5284, 1846, 3018, 2838
5285, 1714, 2909, 1863
5286, 1011, 2932, 811
5287, 599, 2906, 602
5288, 1256, 2922, 1257
5289, 2065, 2963, 1369
5290, 2905, 2917, 730
5291, 1661, 2913, 1025
5292, 605, 2902, 608
5293, 600, 2900, 598
5294, 243, 2860, 562
5295, 1800, 2890, 963
5296, 726, 2927, 2188
5297, 730, 2917, 727
5298, 2183, 2911, 2810
5299, 1049, 2919, 1773
5300, 428, 598, 35
5301, 2911, 2913, 1661
5302, 2926, 2944, 2050
5303, 1672, 2925, 2814
5304, 2892, 2911, 1661
5305, 2907, 2916, 2776
5306, 2871, 2932, 1011
5307, 2738, 2970, 1784
5308, 2776, 2916, 2707
5309, 2814, 2925, 2901
5310, 1775, 2921, 1776
5311, 603, 2897, 601
5312, 1778, 2923, 1779
5313, 810, 925, 600
5314, 604, 2902, 605
5315, 2931, 2944, 1888
5316, 1052, 2920, 1012
5317, 534, 3200, 1916
5318, 1073, 2915, 1217
5319, 1346, 2922, 1261
5320, 2810, 2911, 2892
5321, 1767, 2924, 1768
5322, 2927, 2936, 2188
5323, 810, 926, 925
5324, 2118, 2989, 2091
5325, 1733, 2958, 2100
5326, 1070, 2950, 1330
5327, 2910, 2928, 953
5328, 736, 2942, 738
5329, 844, 2902, 604
5330, 2188, 2936, 2189
5331, 2030, 2918, 1845
5332, 606, 2897, 603
5333, 602, 2906, 843
5334, 1779, 2923, 2916
5335, 810, 2897, 2307
5336, 2267, 2954, 2268
5337, 1261, 2922, 1256
5338, 601, 2897, 810
5339, 1768, 2927, 1774
5340, 2977, 2979, 1788
5341, 2784, 2900, 925
5342, 2309, 2976, 2974
5343, 1059, 2926, 1009
5344, 2919, 2921, 1775
5345, 2050, 2944, 1050
5346, 2266, 2954, 2265
5347, 1078, 2929, 1203
5348, 1783, 2955, 1784
5349, 953, 2928, 1827
5350, 1072, 2950, 1070
5351, 2101, 2930, 2176
5352, 1050, 2931, 2373
5353, 1768, 2936, 2927
5354, 2548, 2957, 2549
5355, 2494, 3301, 2504
5356, 1075, 2948, 1077
5357, 843, 2914, 845
5358, 2258, 2960, 2256
5359, 519, 2935, 1952
5360, 2169, 2988, 1855
5361, 2207, 2964, 1687
5362, 1208, 2965, 2207
5363, 925, 2900, 600
5364, 1772, 2943, 2934
5365, 1901, 2951, 1792
5366, 609, 2943, 612
5367, 1683, 2938, 2578
5368, 1276, 2962, 2065
5369, 1368, 2962, 1315
5370, 1323, 2963, 2064
5371, 1369, 2963, 1314
5372, 1687, 2964, 1274
5373, 1162, 2965, 1208
5374, 1243, 2965, 1160
5375, 1270, 2964, 1243
5376, 811, 2932, 903
5377, 1309, 2966, 1311
5378, 2117, 2934, 2697
5379, 606, 2945, 2897
5380, 2101, 2940, 2930
5381, 2205, 3303, 525
5382, 1734, 2958, 1733
5383, 2816, 2930, 1675
5384, 1981, 3064, 1926
5385, 2943, 2969, 612
5386, 2791, 2955, 745
5387, 3275, 3283, 2859
5388, 547, 2983, 322
5389, 2930, 2940, 1675
5390, 2897, 2945, 2307
5391, 570, 2973, 157
5392, 396, 2937, 395
5393, 156, 2973, 566
5394, 1206, 2940, 2101
5395, 2310, 2972, 2257
5396, 1297, 2971, 1307
5397, 2619, 2980, 2966
5398, 2729, 2976, 2683
5399, 2620, 2975, 2618
5400, 1172, 2977, 1174
5401, 1017, 2959, 2790
5402, 839, 2968, 2818
5403, 1202, 2979, 1170
5404, 1313, 2980, 1681
5405, 321, 2983, 445
5406, 1688, 2981, 1788
5407, 1664, 2939, 2118
5408, 1706, 3048, 1707
5409, 1341, 2968, 913
5410, 608, 2943, 609
5411, 1784, 2970, 933
5412, 1675, 2940, 2785
5413, 1293, 2961, 1295
5414, 2086, 2941, 914
5415, 1941, 3296, 1478
5416, 1206, 2947, 2940
5417, 1828, 2984, 2665
5418, 536, 2985, 405
5419, 404, 2985, 437
5420, 2924, 2936, 1768
5421, 738, 2942, 745
5422, 1888, 2944, 1866
5423, 2778, 3070, 518
5424, 2940, 2947, 2785
5425, 2258, 2971, 2961
5426, 1669, 2946, 1790
5427, 2153, 2997, 2155
5428, 269, 3279, 1988
5429, 2972, 2974, 1307
5430, 445, 3023, 2575
5431, 1791, 2992, 2939
5432, 2190, 2947, 1206
5433, 1744, 2987, 2086
5434, 1772, 2969, 2943
5435, 1689, 2969, 1772
5436, 2975, 2978, 1681
5437, 1983, 3199, 1736
5438, 1199, 2981, 2309
5439, 2880, 2945, 606
5440, 1217, 2948, 1075
5441, 2934, 2943, 608
5442, 2785, 2947, 1676
5443, 1985, 3006, 1987
5444, 522, 2991, 417
5445, 1790, 2949, 1835
5446, 2506, 3032, 1707
5447, 2947, 2952, 1676
5448, 1346, 2988, 2922
5449, 416, 2991, 435
5450, 409, 2990, 436
5451, 2190, 2952, 2947
5452, 3237, 3281, 2198
5453, 1250, 2950, 1072
5454, 2191, 2952, 2190
5455, 2956, 2960, 1306
5456, 1826, 2953, 2928
5457, 2259, 2960, 2956
5458, 1676, 2952, 2763
5459, 2265, 2954, 2267
5460, 2191, 2956, 2952
5461, 1691, 2986, 1689
5462, 2922, 2988, 2169
5463, 2464, 3166, 2466
5464, 1306, 2961, 1293
5465, 1691, 2987, 2986
5466, 1018, 2992, 928
5467, 745, 2955, 2899
5468, 2259, 2956, 2191
5469, 1792, 2951, 1791
5470, 2952, 2956, 2763
5471, 2137, 3141, 2136
5472, 2985, 3287, 437
5473, 141, 2994, 594
5474, 593, 2995, 350
5475, 2033, 2998, 2034
5476, 3070, 3192, 1923
5477, 2998, 3000, 2034
5478, 2547, 2957, 2548
5479, 1365, 3001, 1364
5480, 2763, 2956, 1306
5481, 2256, 2960, 2259
5482, 2790, 2959, 2791
5483, 1689, 2986, 2969
5484, 2022, 2958, 1734
5485, 2686, 2998, 2033
5486, 2258, 2961, 2960
5487, 2713, 2998, 998
5488, 1315, 2962, 1276
5489, 1683, 2957, 2938
5490, 1314, 2963, 1323
5491, 1160, 2965, 1162
5492, 1274, 2964, 1270
5493, 2938, 2957, 2547
5494, 1681, 2980, 2975
5495, 1682, 2966, 1309
5496, 2274, 3002, 1632
5497, 1682, 2967, 2966
5498, 1788, 2967, 1682
5499, 1208, 2978, 2620
5500, 1630, 3002, 1856
5501, 2971, 2972, 1307
5502, 2017, 3007, 2018
5503, 1788, 2981, 2977
5504, 2309, 2974, 2310
5505, 1907, 3276, 507
5506, 2061, 3020, 584
5507, 908, 2999, 1020
5508, 2899, 2955, 1783
5509, 519, 3077, 2935
5510, 508, 3275, 1909
5511, 913, 2968, 839
5512, 2928, 2953, 1827
5513, 2498, 3004, 2500
5514, 202, 3285, 1912
5515, 2967, 2979, 1202
5516, 2946, 2999, 1790
5517, 2939, 2992, 1018
5518, 1295, 2971, 1297
5519, 2257, 2972, 2258
5520, 612, 2969, 2815
5521, 157, 2973, 156
5522, 933, 2970, 1684
5523, 2618, 2975, 2619
5524, 1307, 2974, 2729
5525, 2683, 2976, 1688
5526, 1174, 2977, 1199
5527, 1681, 2978, 2066
5528, 2594, 3252, 1857
5529, 1170, 2979, 1172
5530, 1311, 2980, 1313
5531, 2241, 2982, 581
5532, 322, 2983, 321
5533, 471, 3008, 2483
5534, 2488, 3008, 2487
5535, 2375, 3009, 552
5536, 2505, 3009, 2506
5537, 1915, 3152, 2182
5538, 2665, 2984, 2423
5539, 1924, 3206, 3077
5540, 405, 2985, 404
5541, 1916, 3177, 2602
5542, 2122, 3292, 1603
5543, 2969, 2986, 2815
5544, 565, 3003, 248
5545, 2572, 3010, 448
5546, 2513, 3010, 2514
5547, 2422, 3287, 2985
5548, 2309, 2981, 2976
5549, 2986, 2987, 799
5550, 2815, 2986, 799
5551, 1020, 2999, 2946
5552, 520, 3014, 226
5553, 2091, 2989, 2945
5554, 2960, 2961, 1306
5555, 1344, 3193, 2111
5556, 1488, 3015, 1501
5557, 225, 3014, 496
5558, 518, 3070, 1923
5559, 1857, 3289, 2594
5560, 1723, 3012, 1858
5561, 398, 3013, 397
5562, 1932, 3230, 2262
5563, 2093, 3305, 1848
5564, 1870, 3012, 1721
5565, 799, 2987, 1744
5566, 1494, 3015, 1484
5567, 2945, 2989, 2307
5568, 1869, 2988, 1346
5569, 1997, 3322, 1996
5570, 1735, 3006, 1985
5571, 2820, 3288, 3276
5572, 1942, 3087, 3079
5573, 1788, 2979, 2967
5574, 2206, 3316, 1879
5575, 1706, 3085, 3048
5576, 569, 3016, 2261
5577, 1, 3241, 6
5578, 2258, 2972, 2971
5579, 2307, 2989, 1018
5580, 2239, 3034, 590
5581, 2612, 3180, 1839
5582, 1918, 3146, 1920
5583, 2975, 2980, 2619
5584, 1910, 3143, 1911
5585, 2977, 2981, 1199
5586, 2134, 3021, 502
5587, 410, 2990, 409
5588, 417, 2991, 416
5589, 6, 3241, 1982
5590, 3141, 3176, 2136
5591, 928, 2992, 954
5592, 1707, 3048, 2506
5593, 1924, 3077, 519
5594, 2280, 3022, 2141
5595, 2631, 3011, 2912
5596, 2976, 2981, 1688
5597, 1798, 2993, 1715
5598, 2838, 3018, 255
5599, 254, 3018, 429
5600, 1843, 3019, 1904
5601, 142, 2994, 141
5602, 350, 2995, 349
5603, 2108, 2996, 2110
5604, 2039, 3006, 1735
5605, 2155, 2997, 474
5606, 2912, 3011, 442
5607, 1999, 3052, 961
5608, 2600, 3071, 1008
5609, 2982, 3028, 1992
5610, 1364, 3001, 1820
5611, 998, 2998, 2686
5612, 1785, 3000, 2713
5613, 942, 2999, 908
5614, 1632, 3002, 1630
5615, 248, 3003, 247
5616, 1972, 3205, 588
5617, 1694, 3011, 2631
5618, 561, 3027, 277
5619, 276, 3027, 467
5620, 3166, 3203, 2466
5621, 2500, 3004, 2502
5622, 1568, 3017, 1570
5623, 1872, 3013, 1875
5624, 2198, 3281, 2199
5625, 245, 3025, 244
5626, 1975, 3005, 585
5627, 247, 3026, 246
5628, 2838, 3236, 1846
5629, 1920, 3121, 2678
5630, 962, 3065, 2003
5631, 1996, 3322, 46
5632, 2063, 3007, 2017
5633, 1566, 3030, 1568
5634, 1430, 3031, 1699
5635, 1492, 3031, 1432
5636, 1707, 3032, 2656
5637, 2706, 3032, 1686
5638, 331, 3036, 511
5639, 2590, 3033, 2591
5640, 2055, 3161, 564
5641, 961, 3052, 48
5642, 526, 3036, 332
5643, 2497, 3087, 1943
5644, 49, 3052, 1054
5645, 1254, 3305, 2093
5646, 1728, 3035, 1542
5647, 1544, 3035, 1703
5648, 1732, 3076, 2600
5649, 2487, 3008, 471
5650, 552, 3009, 2505
5651, 2020, 3054, 2010
5652, 3034, 3106, 2002
5653, 1825, 3167, 2581
5654, 1709, 3038, 1874
5655, 1570, 3017, 1683
5656, 21, 3065, 962
5657, 596, 3065, 20
5658, 1852, 3038, 1708
5659, 448, 3010, 2513
5660, 452, 3159, 1927
5661, 442, 3011, 2592
5662, 1416, 3039, 1486
5663, 1491, 3039, 1418
5664, 3019, 3064, 566
5665, 2371, 3242, 490
5666, 1988, 3279, 1905
5667, 3029, 3110, 2240
5668, 3281, 3304, 2199
5669, 1721, 3012, 1723
5670, 589, 3029, 2240
5671, 1953, 3251, 1955
5672, 2628, 3042, 1325
5673, 1462, 3041, 1701
5674, 2994, 3081, 1960
5675, 1970, 3082, 2995
5676, 3096, 3319, 2765
5677, 1717, 3085, 1706
5678, 2241, 3028, 2982
5679, 397, 3013, 438
5680, 1452, 3043, 1450
5681, 2595, 3311, 1696
5682, 1351, 3297, 3025
5683, 2579, 3178, 1825
5684, 2466, 3203, 2467
5685, 226, 3014, 225
5686, 584, 3037, 2238
5687, 1484, 3015, 1488
5688, 2103, 3116, 2104
5689, 1683, 3017, 2957
5690, 2000, 3315, 2001
5691, 2575, 3023, 2577
5692, 1943, 3087, 1942
5693, 2273, 3045, 2274
5694, 2261, 3016, 2262
5695, 1325, 3046, 1326
5696, 2046, 3086, 2020
5697, 507, 3201, 33
5698, 1694, 3033, 3011
5699, 2957, 3017, 2549
5700, 2506, 3048, 433
5701, 2083, 3058, 2082
5702, 2462, 3050, 2463
5703, 2483, 3050, 2482
5704, 2569, 3051, 2567
5705, 1344, 3047, 1056
5706, 1943, 3148, 2497
5707, 2010, 3037, 2009
5708, 586, 3059, 2043
5709, 850, 3047, 2866
5710, 255, 3018, 254
5711, 1718, 3058, 1844
5712, 2514, 3055, 539
5713, 2456, 3055, 2455
5714, 485, 3056, 2520
5715, 1476, 3296, 1941
5716, 2018, 3264, 563
5717, 2134, 3218, 3021
5718, 1928, 3156, 462
5719, 36, 3194, 508
5720, 496, 3062, 224
5721, 1720, 3057, 1870
5722, 2009, 3020, 2011
5723, 343, 3059, 586
5724, 2890, 3302, 3053
5725, 1994, 3295, 576
5726, 2595, 3060, 458
5727, 296, 3060, 295
5728, 525, 3067, 2170
5729, 2056, 3137, 2057
5730, 77, 3063, 76
5731, 1846, 3236, 1847
5732, 1901, 3098, 2951
5733, 903, 3061, 825
5734, 1926, 3019, 1843
5735, 587, 3211, 2013
5736, 1895, 3057, 2875
5737, 884, 3061, 1016
5738, 502, 3021, 2143
5739, 2020, 3086, 3054
5740, 2046, 3103, 3086
5741, 493, 3244, 1989
5742, 2460, 3104, 1690
5743, 560, 3022, 2280
5744, 1717, 3122, 3085
5745, 1493, 3068, 1466
5746, 569, 3179, 3016
5747, 3011, 3033, 2592
5748, 1008, 3071, 1007
5749, 1046, 3072, 1677
5750, 1837, 3072, 1045
5751, 1938, 3095, 535
5752, 970, 3073, 2666
5753, 2536, 3075, 2545
5754, 2540, 3075, 2537
5755, 2137, 3112, 1493
5756, 1010, 3076, 1732
5757, 2887, 3101, 903
5758, 2492, 3301, 2494
5759, 2827, 3076, 987
5760, 2522, 3083, 2525
5761, 583, 3081, 143
5762, 348, 3082, 582
5763, 2529, 3083, 2523
5764, 542, 3088, 2102
5765, 1770, 3071, 2827
5766, 2199, 3304, 2301
5767, 2044, 3024, 2007
5768, 1494, 3219, 3015
5769, 2533, 3087, 530
5770, 1693, 3113, 2480
5771, 2498, 3148, 3004
5772, 1501, 3091, 1495
5773, 511, 3092, 330
5774, 3099, 3313, 2705
5775, 1436, 3089, 1492
5776, 1992, 3028, 2005
5777, 2043, 3059, 2044
5778, 524, 3316, 2206
5779, 2890, 3053, 950
5780, 2990, 3278, 2266
5781, 3124, 3297, 1351
5782, 2601, 3240, 2953
5783, 1540, 3093, 1728
5784, 947, 3090, 2817
5785, 507, 3288, 3201
5786, 2552, 3100, 2554
5787, 535, 3095, 198
5788, 197, 3095, 434
5789, 2130, 3111, 2128
5790, 2520, 3097, 559
5791, 2508, 3319, 3096
5792, 1031, 3099, 2705
5793, 222, 3105, 476
5794, 1929, 3140, 575
5795, 2140, 3112, 2139
5796, 285, 3102, 284
5797, 1998, 3029, 1999
5798, 1922, 3153, 1811
5799, 971, 3104, 970
5800, 1690, 3104, 974
5801, 1965, 3258, 1963
5802, 244, 3025, 2860
5803, 2104, 3250, 2106
5804, 129, 3108, 128
5805, 2138, 3112, 2137
5806, 1478, 3123, 1943
5807, 130, 3109, 129
5808, 1560, 3107, 1562
5809, 2908, 3078, 1468
5810, 1458, 3113, 1693
5811, 277, 3027, 276
5812, 1701, 3113, 1460
5813, 398, 3262, 3013
5814, 2205, 3139, 2842
5815, 1939, 3078, 2908
5816, 1998, 3110, 3029
5817, 1493, 3141, 2137
5818, 1016, 3114, 1015
5819, 1861, 3117, 2650
5820, 489, 3127, 2131
5821, 2003, 3034, 2002
5822, 466, 3118, 2608
5823, 1665, 3114, 1899
5824, 586, 3028, 2241
5825, 1881, 3120, 1801
5826, 408, 3121, 407
5827, 1406, 3123, 1478
5828, 1475, 3123, 1408
5829, 328, 3130, 499
5830, 1564, 3094, 1702
5831, 590, 3128, 345
5832, 1776, 3126, 1945
5833, 2543, 3129, 2544
5834, 1702, 3030, 1566
5835, 1432, 3031, 1430
5836, 2656, 3032, 2706
5837, 1932, 3066, 1931
5838, 1536, 3131, 1535
5839, 1928, 3132, 1678
5840, 936, 3132, 1353
5841, 2592, 3033, 2590
5842, 2203, 3160, 2204
5843, 262, 3231, 5
5844, 3020, 3037, 584
5845, 64, 3232, 2
5846, 4, 3233, 427
5847, 3, 3234, 229
5848, 545, 3133, 2615
5849, 2555, 3138, 455
5850, 2504, 3271, 3268
5851, 2614, 3164, 1809
5852, 5, 3231, 261
5853, 1645, 3136, 934
5854, 1680, 3136, 1927
5855, 2, 3232, 245
5856, 230, 3233, 4
5857, 246, 3234, 3
5858, 2746, 3135, 1008
5859, 444, 3240, 2601
5860, 142, 3081, 2994
5861, 2995, 3082, 349
5862, 1677, 3126, 2921
5863, 1955, 3251, 3040
5864, 23, 3315, 2000
5865, 1542, 3035, 1544
5866, 47, 3322, 961
5867, 1884, 3140, 1885
5868, 1469, 3141, 1493
5869, 2549, 3049, 446
5870, 3021, 3218, 1674
5871, 1892, 3142, 1891
5872, 962, 3315, 22
5873, 332, 3036, 331
5874, 1812, 3139, 1884
5875, 3184, 3226, 2502
5876, 3004, 3148, 1475
5877, 1896, 3228, 1814
5878, 1906, 3026, 3003
5879, 1354, 3137, 1051
5880, 2202, 3160, 2203
5881, 549, 3145, 2508
5882, 515, 3144, 1913
5883, 3033, 3046, 2591
5884, 1022, 3129, 2545
5885, 407, 3146, 406
5886, 78, 3150, 77
5887, 451, 3158, 2542
5888, 237, 3147, 236
5889, 2609, 3153, 558
5890, 554, 3163, 1945
5891, 3016, 3179, 1949
5892, 527, 3155, 273
5893, 1348, 3233, 2054
5894, 2060, 3160, 2831
5895, 2544, 3163, 2546
5896, 2125, 3291, 1599
5897, 1987, 3213, 500
5898, 2606, 3162, 2605
5899, 2083, 3170, 252
5900, 2670, 3217, 1828
5901, 2509, 3164, 469
5902, 2613, 3164, 2614
5903, 1830, 3157, 1910
5904, 2048, 3231, 1350
5905, 1891, 3154, 1821
5906, 1917, 3177, 1916
5907, 446, 3049, 2569
5908, 1795, 3138, 1796
5909, 3004, 3184, 2502
5910, 3015, 3219, 1873
5911, 240, 3165, 239
5912, 2836, 3181, 2531
5913, 1066, 3167, 1825
5914, 1695, 3167, 2727
5915, 2542, 3169, 2539
5916, 3003, 3026, 247
5917, 2563, 3321, 1837
5918, 2454, 3168, 2453
5919, 2451, 3168, 2452
5920, 2532, 3171, 2528
5921, 2866, 3282, 930
5922, 529, 3180, 2612
5923, 2504, 3268, 2494
5924, 3194, 3283, 508
5925, 1708, 3038, 1709
5926, 2203, 3182, 475
5927, 2614, 3171, 557
5928, 3053, 3302, 2130
5929, 2721, 3173, 1922
5930, 2598, 3175, 472
5931, 1936, 3307, 473
5932, 439, 3177, 2458
5933, 1736, 3199, 2067
5934, 251, 3170, 500
5935, 1410, 3184, 1475
5936, 2427, 3122, 1717
5937, 1674, 3176, 1473
5938, 2891, 3152, 1915
5939, 2068, 3199, 2071
5940, 2968, 3318, 2818
5941, 1418, 3039, 1416
5942, 1963, 3258, 2778
5943, 2515, 3196, 543
5944, 1726, 3149, 1864
5945, 271, 3197, 453
5946, 1879, 3193, 1334
5947, 3199, 3323, 2071
5948, 1916, 3200, 1815
5949, 2034, 3207, 493
5950, 239, 3195, 238
5951, 2873, 3084, 1354
5952, 588, 3205, 138
5953, 137, 3205, 575
5954, 2136, 3218, 2135
5955, 3059, 3128, 2044
5956, 92, 3207, 2534
5957, 493, 3207, 93
5958, 1972, 3040, 1930
5959, 1061, 3193, 1344
5960, 35, 3194, 36
5961, 3013, 3262, 1875
5962, 236, 3204, 235
5963, 2935, 3251, 1953
5964, 1857, 3210, 1531
5965, 1533, 3210, 1536
5966, 1888, 3174, 2931
5967, 2524, 3216, 2531
5968, 353, 3211, 587
5969, 574, 3211, 354
5970, 956, 3096, 2765
5971, 2953, 3227, 2601
5972, 2799, 3227, 1826
5973, 1889, 3245, 1786
5974, 2834, 3191, 1789
5975, 508, 3283, 3275
5976, 1742, 3215, 1741
5977, 1879, 3316, 3193
5978, 1464, 3041, 1462
5979, 574, 3142, 1933
5980, 1727, 3042, 2628
5981, 1919, 3224, 1918
5982, 1486, 3226, 1414
5983, 2554, 3090, 2555
5984, 2142, 3310, 2144
5985, 500, 3213, 250
5986, 1722, 3221, 1601
5987, 2053, 3257, 2056
5988, 1068, 3241, 1
5989, 1600, 3221, 1862
5990, 259, 3208, 563
5991, 80, 3242, 2517
5992, 490, 3242, 81
5993, 2854, 3229, 1921
5994, 1353, 3074, 2664
5995, 249, 3213, 565
5996, 2610, 3244, 95
5997, 94, 3244, 493
5998, 1725, 3230, 1932
5999, 2559, 3321, 2563
6000, 954, 3098, 2888
6001, 1485, 3043, 1452
6002, 2678, 3249, 1838
6003, 2452, 3252, 550
6004, 2593, 3252, 2594
6005, 1905, 3229, 1853
6006, 598, 3194, 35
6007, 481, 3262, 399
6008, 2473, 3314, 2472
6009, 2859, 3283, 2784
6010, 2525, 3318, 2968
6011, 1851, 3288, 2820
6012, 1736, 3286, 1983
6013, 1696, 3311, 1525
6014, 2471, 3274, 2473
6015, 2501, 3271, 2504
6016, 2670, 3183, 2485
6017, 1588, 3261, 1599
6018, 199, 3307, 535
6019, 473, 3307, 200
6020, 453, 3279, 270
6021, 202, 3277, 201
6022, 480, 3278, 411
6023, 2997, 3143, 474
6024, 1882, 3280, 2723
6025, 1849, 3265, 1878
6026, 1827, 3240, 2780
6027, 1479, 3256, 1674
6028, 2495, 3301, 2492
6029, 2504, 3301, 540
6030, 541, 3285, 203
6031, 1529, 3289, 1857
6032, 1402, 3296, 1476
6033, 1478, 3296, 1404
6034, 930, 3282, 2996
6035, 1450, 3298, 1448
6036, 1603, 3292, 1584
6037, 3090, 3309, 2817
6038, 563, 3208, 2933
6039, 1902, 3272, 2855
6040, 2704, 3299, 1898
6041, 257, 3264, 497
6042, 1477, 3235, 2734
6043, 3000, 3159, 2534
6044, 1934, 3044, 2013
6045, 563, 3264, 258
6046, 1700, 3294, 1483
6047, 2557, 3156, 1741
6048, 33, 3201, 34
6049, 2991, 3272, 435
6050, 3206, 3220, 2800
6051, 3239, 3308, 3079
6052, 2010, 3054, 3037
6053, 1872, 3280, 3013
6054, 486, 3115, 286
6055, 1879, 3154, 2206
6056, 2268, 3202, 2612
6057, 1825, 3178, 1824
6058, 950, 3053, 2337
6059, 1978, 3209, 1981
6060, 2664, 3074, 1645
6061, 2775, 3212, 3192
6062, 34, 3201, 1673
6063, 1067, 3305, 1069
6064, 942, 3116, 2949
6065, 1475, 3184, 3004
6066, 2275, 3045, 2273
6067, 1486, 3271, 3226
6068, 2601, 3227, 555
6069, 1982, 3241, 1330
6070, 1326, 3046, 1694
6071, 1056, 3047, 850
6072, 1464, 3068, 3041
6073, 433, 3048, 2516
6074, 2427, 3172, 3122
6075, 1727, 3069, 3042
6076, 2482, 3050, 2462
6077, 1877, 3124, 1876
6078, 2567, 3051, 2568
6079, 3274, 3298, 2473
6080, 3044, 3258, 1965
6081, 2984, 3287, 2423
6082, 2009, 3037, 3020
6083, 3256, 3294, 2143
6084, 2131, 3053, 2130
6085, 3013, 3280, 438
6086, 2518, 3175, 1805
6087, 48, 3052, 49
6088, 594, 3324, 2252
6089, 2146, 3291, 2126
6090, 1868, 3272, 2991
6091, 2568, 3151, 484
6092, 2238, 3054, 591
6093, 522, 3265, 2991
6094, 410, 3278, 2990
6095, 2528, 3119, 2527
6096, 539, 3055, 2456
6097, 2581, 3056, 485
6098, 564, 3161, 232
6099, 2875, 3057, 1720
6100, 2608, 3313, 3099
6101, 2082, 3058, 1718
6102, 490, 3215, 2369
6103, 2426, 3172, 2427
6104, 567, 3212, 1907
6105, 344, 3059, 343
6106, 2275, 3080, 3045
6107, 2608, 3099, 2609
6108, 3030, 3049, 2549
6109, 1662, 3084, 2873
6110, 1927, 3159, 1785
6111, 576, 3295, 2253
6112, 458, 3060, 296
6113, 1700, 3310, 3294
6114, 825, 3061, 884
6115, 1909, 3220, 568
6116, 224, 3062, 223
6117, 76, 3063, 494
6118, 1330, 3323, 1982
6119, 1807, 3243, 1896
6120, 3015, 3306, 1501
6121, 1477, 3274, 3235
6122, 20, 3065, 21
6123, 3276, 3288, 507
6124, 577, 3066, 1946
6125, 2606, 3189, 1836
6126, 1694, 3046, 3033
6127, 2612, 3202, 2611
6128, 2170, 3067, 2171
6129, 1674, 3256, 3021
6130, 3048, 3085, 2516
6131, 1848, 3305, 1067
6132, 3021, 3256, 2143
6133, 1906, 3223, 1798
6134, 1466, 3068, 1464
6135, 2991, 3265, 1868
6136, 1864, 3069, 1727
6137, 3054, 3086, 591
6138, 2558, 3215, 490
6139, 2812, 3096, 956
6140, 231, 3161, 2054
6141, 1468, 3078, 2621
6142, 2531, 3181, 456
6143, 1739, 3156, 1928
6144, 1007, 3071, 1770
6145, 3037, 3054, 2238
6146, 1045, 3072, 1046
6147, 2426, 3214, 3172
6148, 1702, 3094, 3051
6149, 3192, 3212, 567
6150, 2666, 3073, 1917
6151, 2583, 3074, 2584
6152, 3043, 3314, 2473
6153, 2527, 3119, 2529
6154, 2537, 3075, 2536
6155, 1937, 3078, 1939
6156, 987, 3076, 1010
6157, 1848, 3219, 2093
6158, 568, 3220, 3206
6159, 1834, 3183, 2670
6160, 3062, 3105, 223
6161, 1833, 3253, 1889
6162, 1802, 3080, 2275
6163, 583, 3186, 3081
6164, 3082, 3187, 582
6165, 434, 3079, 2533
6166, 286, 3115, 285
6167, 2540, 3169, 923
6168, 143, 3081, 142
6169, 349, 3082, 348
6170, 2059, 3084, 2060
6171, 2523, 3083, 2522
6172, 2799, 3158, 2556
6173, 590, 3185, 3128
6174, 1562, 3094, 1564
6175, 2516, 3085, 528
6176, 591, 3086, 2237
6177, 588, 3246, 3040
6178, 530, 3087, 2497
6179, 2102, 3088, 2103
6180, 2990, 3249, 436
6181, 589, 3103, 3029
6182, 1438, 3089, 1436
6183, 2372, 3174, 2517
6184, 1873, 3306, 3015
6185, 344, 3128, 3059
6186, 1495, 3091, 1840
6187, 2225, 3157, 2780
6188, 1817, 3214, 2426
6189, 3086, 3103, 2237
6190, 538, 3162, 2448
6191, 330, 3092, 329
6192, 3003, 3223, 1906
6193, 1538, 3093, 1540
6194, 2895, 3090, 947
6195, 1945, 3163, 1777
6196, 198, 3095, 197
6197, 2508, 3096, 2509
6198, 559, 3097, 2597
6199, 494, 3100, 2552
6200, 1911, 3101, 2887
6201, 2672, 3099, 1031
6202, 3053, 3325, 2337
6203, 487, 3189, 2606
6204, 1702, 3049, 3030
6205, 2237, 3103, 589
6206, 284, 3102, 460
6207, 1805, 3175, 1806
6208, 974, 3104, 971
6209, 2820, 3276, 1793
6210, 1926, 3064, 3019
6211, 1802, 3120, 3080
6212, 223, 3105, 222
6213, 582, 3106, 2239
6214, 1365, 3257, 3001
6215, 3058, 3290, 1844
6216, 575, 3140, 2243
6217, 3085, 3122, 528
6218, 2131, 3325, 3053
6219, 2128, 3111, 510
6220, 2264, 3249, 2990
6221, 2951, 3098, 954
6222, 1730, 3107, 1560
6223, 128, 3108, 479
6224, 2610, 3173, 1819
6225, 504, 3109, 130
6226, 1817, 3255, 3214
6227, 1438, 3125, 3089
6228, 514, 3139, 2205
6229, 2240, 3110, 583
6230, 2139, 3112, 2138
6231, 1837, 3189, 2563
6232, 1460, 3113, 1458
6233, 930, 3250, 2863
6234, 3092, 3130, 329
6235, 1538, 3131, 3093
6236, 2554, 3309, 3090
6237, 1741, 3156, 1739
6238, 1015, 3114, 1665
6239, 2206, 3154, 513
6240, 3165, 3228, 1896
6241, 481, 3183, 2762
6242, 1864, 3149, 3102
6243, 2863, 3116, 942
6244, 2200, 3181, 1859
6245, 1941, 3308, 1940
6246, 3117, 3285, 541
6247, 1912, 3117, 1861
6248, 2486, 3118, 466
6249, 3044, 3259, 587
6250, 1986, 3170, 2083
6251, 1787, 3275, 2859
6252, 1801, 3120, 1802
6253, 1052, 3119, 2878
6254, 2049, 3124, 1351
6255, 3069, 3115, 486
6256, 436, 3121, 408
6257, 2242, 3142, 574
6258, 528, 3122, 2450
6259, 1330, 3241, 1068
6260, 536, 3224, 2985
6261, 1408, 3123, 1406
6262, 1949, 3179, 1950
6263, 2517, 3174, 454
6264, 2650, 3255, 1817
6265, 3187, 3263, 3106
6266, 2716, 3125, 1438
6267, 2563, 3189, 487
6268, 1886, 3206, 2800
6269, 484, 3151, 2603
6270, 2192, 3127, 489
6271, 3001, 3257, 2055
6272, 2718, 3129, 1022
6273, 345, 3128, 344
6274, 2996, 3250, 930
6275, 3147, 3245, 1889
6276, 2545, 3129, 2543
6277, 232, 3161, 231
6278, 329, 3130, 328
6279, 1535, 3131, 1538
6280, 923, 3169, 2777
6281, 2921, 3126, 1776
6282, 1898, 3299, 3196
6283, 1341, 3216, 2968
6284, 3034, 3185, 590
6285, 1678, 3132, 936
6286, 2775, 3192, 1893
6287, 1947, 3134, 1949
6288, 2459, 3133, 545
6289, 2762, 3183, 1834
6290, 1806, 3135, 2746
6291, 934, 3136, 1680
6292, 1961, 3273, 1997
6293, 2570, 3217, 531
6294, 434, 3239, 3079
6295, 464, 3173, 2610
6296, 2071, 3323, 1330
6297, 2985, 3224, 2422
6298, 455, 3138, 2209
6299, 456, 3181, 2200
6300, 1983, 3323, 3199
6301, 1051, 3137, 1365
6302, 3095, 3239, 434
6303, 3243, 3245, 430
6304, 1471, 3141, 1469
6305, 1885, 3140, 1929
6306, 2001, 3263, 1971
6307, 2842, 3139, 1812
6308, 2716, 3166, 3125
6309, 1829, 3158, 2799
6310, 474, 3143, 2156
6311, 1933, 3142, 1892
6312, 3193, 3316, 2111
6313, 3151, 3190, 2603
6314, 3122, 3172, 2450
6315, 2968, 3216, 2525
6316, 2624, 3149, 1726
6317, 2448, 3162, 2446
6318, 551, 3157, 2225
6319, 2088, 3245, 3243
6320, 3110, 3273, 3186
6321, 1814, 3228, 2021
6322, 2028, 3144, 515
6323, 1837, 3321, 3072
6324, 1997, 3273, 1998
6325, 2519, 3145, 549
6326, 1844, 3290, 1846
6327, 406, 3146, 536
6328, 1785, 3159, 3000
6329, 2744, 3178, 450
6330, 1940, 3308, 3239
6331, 2497, 3148, 2498
6332, 430, 3147, 237
6333, 2048, 3208, 260
6334, 3091, 3284, 1840
6335, 454, 3150, 78
6336, 2054, 3161, 2055
6337, 2984, 3217, 2570
6338, 558, 3153, 2550
6339, 2603, 3190, 2604
6340, 1324, 3152, 2891
6341, 273, 3155, 272
6342, 3107, 3151, 2568
6343, 1821, 3154, 1879
6344, 462, 3156, 2557
6345, 1862, 3286, 1736
6346, 2937, 3200, 534
6347, 2556, 3158, 451
6348, 2780, 3157, 1830
6349, 2534, 3159, 452
6350, 1471, 3176, 3141
6351, 2605, 3162, 538
6352, 2546, 3163, 554
6353, 2178, 3182, 1878
6354, 2831, 3160, 2202
6355, 469, 3164, 2613
6356, 1490, 3166, 2716
6357, 498, 3165, 240
6358, 1824, 3178, 2744
6359, 1878, 3182, 2084
6360, 2611, 3202, 480
6361, 1882, 3200, 2937
6362, 2002, 3263, 2001
6363, 2727, 3167, 1066
6364, 2624, 3188, 3149
6365, 2453, 3168, 2451
6366, 2539, 3169, 2540
6367, 1936, 3248, 1937
6368, 1942, 3308, 1941
6369, 252, 3170, 251
6370, 3190, 3225, 2604
6371, 582, 3187, 3106
6372, 1847, 3236, 3007
6373, 1324, 3198, 3152
6374, 3083, 3318, 2525
6375, 557, 3171, 2532
6376, 1935, 3248, 1936
6377, 3155, 3197, 272
6378, 3110, 3186, 583
6379, 1485, 3314, 3043
6380, 2450, 3172, 432
6381, 2029, 3253, 1833
6382, 3064, 3209, 2260
6383, 3149, 3188, 460
6384, 2931, 3174, 2372
6385, 1819, 3173, 2721
6386, 1730, 3190, 3151
6387, 472, 3175, 2518
6388, 1797, 3188, 2624
6389, 2602, 3177, 439
6390, 1473, 3176, 1471
6391, 450, 3178, 2579
6392, 2253, 3179, 569
6393, 480, 3202, 2954
6394, 1490, 3203, 3166
6395, 3191, 3291, 2146
6396, 2904, 3180, 529
6397, 3078, 3248, 2621
6398, 475, 3182, 2178
6399, 1839, 3180, 1902
6400, 3051, 3094, 2568
6401, 1949, 3134, 3016
6402, 1859, 3181, 2836
6403, 2485, 3183, 481
6404, 1673, 3201, 2796
6405, 1412, 3184, 1410
6406, 1902, 3180, 2904
6407, 1960, 3186, 1961
6408, 1971, 3187, 1970
6409, 460, 3188, 2551
6410, 2604, 3225, 441
6411, 1836, 3189, 1837
6412, 2715, 3190, 1730
6413, 1820, 3267, 2029
6414, 3172, 3214, 432
6415, 1923, 3192, 567
6416, 1599, 3191, 2834
6417, 1334, 3193, 1061
6418, 1873, 3219, 1848
6419, 498, 3247, 3228
6420, 1797, 3222, 3188
6421, 3268, 3271, 1486
6422, 2067, 3199, 2068
6423, 543, 3196, 2573
6424, 272, 3197, 271
6425, 238, 3195, 430
6426, 1937, 3248, 3078
6427, 2804, 3198, 1324
6428, 1815, 3200, 1882
6429, 2900, 3194, 598
6430, 497, 3236, 2838
6431, 2954, 3202, 2268
6432, 3201, 3288, 2796
6433, 2933, 3208, 2048
6434, 2734, 3203, 1490
6435, 3081, 3186, 1960
6436, 1970, 3187, 3082
6437, 138, 3205, 137
6438, 2621, 3248, 1935
6439, 2800, 3220, 1787
6440, 235, 3204, 501
6441, 568, 3206, 1924
6442, 1820, 3270, 3267
6443, 1412, 3226, 3184
6444, 3188, 3222, 2551
6445, 93, 3207, 92
6446, 3225, 3269, 441
6447, 1810, 3303, 2842
6448, 2088, 3243, 1807
6449, 2260, 3209, 573
6450, 260, 3208, 259
6451, 1793, 3212, 2775
6452, 2715, 3225, 3190
6453, 1531, 3210, 1533
6454, 429, 3290, 3058
6455, 3228, 3247, 2021
6456, 1846, 3290, 3018
6457, 354, 3211, 353
6458, 2778, 3258, 1934
6459, 1896, 3243, 3195
6460, 1789, 3238, 1871
6461, 3127, 3325, 2131
6462, 432, 3214, 2564
6463, 250, 3213, 249
6464, 2635, 3222, 1797
6465, 2467, 3235, 2469
6466, 2135, 3218, 2134
6467, 2804, 3237, 3198
6468, 2093, 3219, 1494
6469, 2081, 3260, 1877
6470, 2525, 3216, 2524
6471, 2369, 3215, 1742
6472, 1828, 3217, 2984
6473, 1350, 3231, 262
6474, 2551, 3222, 537
6475, 441, 3269, 2515
6476, 245, 3232, 3025
6477, 2021, 3247, 1808
6478, 1601, 3221, 1600
6479, 1351, 3232, 64
6480, 229, 3234, 1349
6481, 427, 3233, 1348
6482, 1808, 3254, 2081
6483, 3026, 3234, 246
6484, 2422, 3224, 1919
6485, 1897, 3225, 2715
6486, 1414, 3226, 1412
6487, 2993, 3223, 565
6488, 2106, 3250, 2996
6489, 2029, 3267, 3253
6490, 2635, 3266, 3222
6491, 3214, 3255, 2564
6492, 1981, 3209, 3064
6493, 2130, 3302, 3111
6494, 3145, 3319, 2508
6495, 3047, 3282, 2866
6496, 1864, 3115, 3069
6497, 499, 3238, 2146
6498, 1858, 3230, 1725
6499, 1940, 3239, 1938
6500, 565, 3223, 3003
6501, 1930, 3251, 2935
6502, 1798, 3223, 2993
6503, 1853, 3229, 2854
6504, 1329, 3237, 2804
6505, 3001, 3270, 1820
6506, 587, 3259, 2251
6507, 1786, 3245, 2088
6508, 81, 3242, 80
6509, 3222, 3266, 537
6510, 2817, 3309, 1818
6511, 3247, 3254, 1808
6512, 95, 3244, 94
6513, 2252, 3246, 588
6514, 3133, 3320, 2615
6515, 1897, 3269, 3225
6516, 3254, 3260, 2081
6517, 3007, 3236, 497
6518, 2484, 3312, 1856
6519, 1838, 3249, 2264
6520, 550, 3252, 2593
6521, 1823, 3266, 2635
6522, 3260, 3297, 1877
6523, 2564, 3255, 541
6524, 2055, 3257, 2053
6525, 2839, 3247, 498
6526, 1481, 3256, 1479
6527, 3039, 3268, 1486
6528, 1586, 3261, 1588
6529, 2900, 3283, 3194
6530, 3226, 3271, 2502
6531, 1329, 3281, 3237
6532, 3118, 3313, 2608
6533, 399, 3262, 398
6534, 1826, 3227, 2953
6535, 2839, 3254, 3247
6536, 258, 3264, 257
6537, 562, 3254, 2839
6538, 542, 3300, 3088
6539, 537, 3266, 2461
6540, 1868, 3265, 1849
6541, 1889, 3253, 3204
6542, 1835, 3300, 1859
6543, 3100, 3309, 2554
6544, 1898, 3269, 1897
6545, 562, 3260, 3254
6546, 1823, 3293, 3266
6547, 2953, 3240, 1827
6548, 2126, 3291, 2125
6549, 2860, 3260, 562
6550, 3128, 3185, 2044
6551, 2502, 3271, 2501
6552, 2469, 3274, 2471
6553, 2855, 3272, 1868
6554, 201, 3277, 473
6555, 2705, 3313, 2447
6556, 525, 3303, 3067
6557, 411, 3278, 410
6558, 1586, 3292, 3261
6559, 501, 3267, 2847
6560, 270, 3279, 269
6561, 2723, 3280, 1872
6562, 1481, 3294, 3256
6563, 3266, 3293, 2461
6564, 3267, 3270, 2847
6565, 2847, 3270, 564
6566, 2769, 3281, 1329
6567, 1840, 3284, 1842
6568, 2658, 3293, 1823
6569, 3253, 3267, 501
6570, 2796, 3288, 1851
6571, 203, 3285, 202
6572, 2744, 3320, 1705
6573, 2423, 3287, 2422
6574, 1527, 3289, 1529
6575, 2044, 3185, 3024
6576, 1584, 3292, 1586
6577, 3018, 3290, 429
6578, 2461, 3293, 463
6579, 1955, 3324, 1956
6580, 2769, 3304, 3281
6581, 1983, 3286, 505
6582, 2658, 3312, 3293
6583, 2784, 3283, 2900
6584, 1483, 3294, 1481
6585, 1404, 3296, 1402
6586, 1527, 3311, 3289
6587, 1448, 3298, 1477
6588, 1697, 3299, 2704
6589, 3293, 3312, 463
6590, 540, 3301, 2495
6591, 2143, 3310, 2142
6592, 1856, 3312, 2658
6593, 1069, 3305, 1254
6594, 1343, 3304, 2769
6595, 1477, 3298, 3274
6596, 200, 3307, 199
6597, 2841, 3317, 1697
6598, 1525, 3311, 1527
6599, 463, 3312, 2484
6600, 2472, 3314, 2475
6601, 22, 3315, 23
6602, 2573, 3317, 2572
6603, 2572, 3317, 2841
6604, 2560, 3321, 2559
6605, 46, 3322, 47
6606, 2765, 3319, 1804
6607, 2818, 3318, 952
6608, 2337, 3325, 1794
6609, 1800, 3302, 2890
6610, 1971, 3263, 3187
6611, 1982, 3323, 1983
6612, 2860, 3297, 3260
6613, 3235, 3274, 2469
6614, 3072, 3321, 2560
6615, 2996, 3282, 2110
6616, 1697, 3317, 3299
6617, 3299, 3317, 2573
6618, 1938, 3239, 3095
6619, 3025, 3232, 1351
6620, 1349, 3234, 3026
6621, 3102, 3149, 460
6622, 3186, 3273, 1961
6623, 3294, 3310, 2143
6624, 1730, 3151, 3107
6625, 2494, 3268, 3039
6626, 952, 3318, 3083
6627, 3067, 3303, 1810
6628, 3040, 3246, 1955
6629, 3040, 3251, 1930
6630, 2110, 3282, 3047
6631, 1934, 3258, 3044
6632, 1965, 3259, 3044
6633, 3025, 3297, 2860
6634, 3079, 3308, 1942
6635, 1912, 3285, 3117
6636, 1818, 3309, 3100
6637, 430, 3245, 3147
6638, 3088, 3300, 1835
6639, 3106, 3263, 2002
6640, 498, 3228, 3165
6641, 1998, 3273, 3110
6642, 1794, 3325, 3127
6643, 2447, 3313, 3118
6644, 3203, 3235, 2467
6645, 1877, 3297, 3124
6646, 3111, 3302, 1800
6647, 2734, 3235, 3203
6648, 1705, 3320, 3133
6649, 3195, 3243, 430
6650, 3204, 3253, 501
6651, 1804, 3319, 3145
6652, 1599, 3291, 3191
6653, 3196, 3299, 2573
6654, 3246, 3324, 1955
6655, 2252, 3324, 3246
